CHNCl 
1
20.000000     0.000000     0.000000
0.000000     20.000000     0.000000
0.000000     0.000000     20.000000
C H N Cl
31     14       1      8
Direct
0.378561     0.647248     0.461544      
0.337694     0.606735     0.421792      
0.280771     0.635817     0.393774      
0.264973     0.703432     0.404808      
0.305677     0.743446     0.444901      
0.362789     0.715379     0.474140      
0.412233     0.740230     0.520701      
0.422874     0.802374     0.551167      
0.475830     0.809555     0.595986      
0.518638     0.755531     0.609922      
0.509686     0.693303     0.579618      
0.455906     0.686143     0.535481      
0.466938     0.566954     0.498775      
0.479555     0.534152     0.559273      
0.510207     0.471819     0.559355      
0.531000     0.438381     0.499883      
0.517098     0.474190     0.439749      
0.485774     0.536224     0.438745      
0.563621     0.373097     0.500500      
0.616425     0.358511     0.549267      
0.670927     0.402687     0.561043      
0.721388     0.389490     0.607151      
0.719331     0.330125     0.643606      
0.667460     0.284519     0.634377      
0.617393     0.298998     0.588213      
0.543847     0.321520     0.452228      
0.591152     0.284902     0.413768      
0.573043     0.235892     0.367750      
0.505497     0.221634     0.358247      
0.456511     0.255674     0.394305      
0.475890     0.304334     0.440163      
0.350237     0.554579     0.411814      
0.250051     0.606232     0.359633      
0.221130     0.724988     0.380511      
0.291673     0.795107     0.455467      
0.388719     0.843932     0.541788      
0.485293     0.858013     0.619151      
0.562376     0.763456     0.641628      
0.544974     0.652609     0.588301      
0.463015     0.555627     0.606906      
0.478169     0.562103     0.391819      
0.762427     0.424710     0.613488      
0.665066     0.238697     0.663501      
0.611314     0.210089     0.338714      
0.403804     0.243911     0.387615      
0.435772     0.630157     0.498310      
0.515827     0.433606     0.636507      
0.545028     0.444271     0.362972      
0.680544     0.474606     0.514001      
0.781875     0.312721     0.700709      
0.552465     0.241832     0.584140      
0.675484     0.303838     0.417968      
0.482237     0.161485     0.300942      
0.411999     0.340989     0.485891      
