CHNCl 
1
20.000000     0.000000     0.000000
0.000000     20.000000     0.000000
0.000000     0.000000     20.000000
C H N Cl
31     14       1      8
Direct
0.377281     0.646515     0.463360      
0.339627     0.607515     0.419109      
0.282795     0.636784     0.391000      
0.265174     0.703563     0.404289      
0.303994     0.742451     0.447134      
0.362439     0.715125     0.474601      
0.409723     0.738917     0.524161      
0.422817     0.802223     0.551301      
0.477082     0.810282     0.594250      
0.520013     0.756229     0.607804      
0.509584     0.693122     0.579825      
0.456082     0.686216     0.535304      
0.466603     0.566831     0.499564      
0.478742     0.533474     0.559828      
0.510519     0.471662     0.559725      
0.530928     0.438328     0.500047      
0.516680     0.474236     0.440100      
0.486029     0.536625     0.439513      
0.563704     0.373098     0.500322      
0.616526     0.358581     0.549061      
0.670960     0.402785     0.560908      
0.721374     0.389518     0.607037      
0.719300     0.330153     0.643492      
0.667423     0.284569     0.634219      
0.617411     0.299094     0.588021      
0.543932     0.321581     0.451992      
0.591197     0.284819     0.413607      
0.573036     0.235826     0.367584      
0.505493     0.221570     0.358095      
0.456573     0.255683     0.394172      
0.475977     0.304323     0.440029      
0.349197     0.554029     0.413285      
0.250456     0.606408     0.359095      
0.222623     0.725756     0.378350      
0.292418     0.795464     0.454438      
0.386745     0.842937     0.544396      
0.484377     0.857592     0.620439      
0.563942     0.764223     0.639368      
0.547230     0.653741     0.585052      
0.464215     0.556112     0.607251      
0.477068     0.561711     0.391950      
0.762384     0.424751     0.613524      
0.665027     0.238722     0.663469      
0.611316     0.210017     0.338719      
0.403821     0.243896     0.387618      
0.434976     0.629936     0.499445      
0.516422     0.432527     0.636855      
0.544688     0.445505     0.363328      
0.680329     0.475095     0.514251      
0.781603     0.312801     0.700688      
0.552021     0.242439     0.584069      
0.675743     0.303005     0.418013      
0.482138     0.161221     0.300914      
0.412268     0.340527     0.486104      
