CHNCl 
1
20.000000     0.000000     0.000000
0.000000     20.000000     0.000000
0.000000     0.000000     20.000000
C H N Cl
31     14       1      8
Direct
0.377975     0.646903     0.462397      
0.338622     0.607132     0.420513      
0.282536     0.636610     0.391299      
0.265791     0.703751     0.403604      
0.304799     0.742933     0.446022      
0.361392     0.714636     0.476022      
0.410770     0.739500     0.522666      
0.421795     0.801834     0.552613      
0.476462     0.809842     0.595066      
0.520411     0.756384     0.607423      
0.510656     0.693768     0.578247      
0.455282     0.685841     0.536350      
0.466580     0.566767     0.499567      
0.479471     0.533817     0.559948      
0.510239     0.471527     0.559725      
0.530924     0.438336     0.500056      
0.516888     0.474385     0.440119      
0.485431     0.536336     0.439414      
0.563692     0.373126     0.500322      
0.616527     0.358551     0.549052      
0.670963     0.402772     0.560920      
0.721350     0.389510     0.607057      
0.719257     0.330137     0.643459      
0.667452     0.285312     0.633739      
0.617422     0.299076     0.588049      
0.543948     0.321569     0.452007      
0.591216     0.284828     0.413596      
0.573046     0.235812     0.367601      
0.505497     0.221589     0.358096      
0.456550     0.255667     0.394174      
0.475983     0.304325     0.440013      
0.350708     0.554796     0.411142      
0.250970     0.606659     0.358345      
0.221560     0.725173     0.379887      
0.291247     0.794871     0.456016      
0.388207     0.843680     0.542477      
0.485639     0.858176     0.618653      
0.563320     0.763918     0.640298      
0.545477     0.652853     0.587552      
0.463037     0.555491     0.607129      
0.478057     0.562188     0.392051      
0.762533     0.424836     0.613513      
0.664899     0.236220     0.665062      
0.611322     0.210030     0.338685      
0.403825     0.243903     0.387608      
0.435054     0.629783     0.499372      
0.516462     0.432553     0.636852      
0.544656     0.445483     0.363316      
0.680330     0.475102     0.514247      
0.781610     0.312801     0.700695      
0.552031     0.242448     0.584069      
0.675733     0.303002     0.418014      
0.482136     0.161219     0.300914      
0.412265     0.340530     0.486109      
