CHNCl 
1
20.000000     0.000000     0.000000
0.000000     20.000000     0.000000
0.000000     0.000000     20.000000
C H N Cl
31     14       1      8
Direct
0.378160     0.647123     0.462539      
0.338792     0.607478     0.420797      
0.282655     0.636718     0.391465      
0.265573     0.703826     0.403411      
0.304456     0.743101     0.445892      
0.361225     0.714922     0.476012      
0.410619     0.739762     0.522671      
0.421814     0.802139     0.552706      
0.476512     0.809982     0.595174      
0.520256     0.756315     0.607289      
0.510365     0.693802     0.577987      
0.455083     0.685849     0.536206      
0.466954     0.566040     0.499622      
0.479492     0.532370     0.559626      
0.512231     0.471248     0.559563      
0.531269     0.437650     0.499997      
0.515834     0.472721     0.440210      
0.486507     0.535558     0.439772      
0.563588     0.373374     0.500281      
0.616111     0.359207     0.548308      
0.669799     0.403719     0.561965      
0.721284     0.389104     0.606569      
0.719132     0.329914     0.643357      
0.666301     0.285445     0.633575      
0.617512     0.299136     0.585847      
0.543622     0.322361     0.452748      
0.591079     0.284653     0.416096      
0.573005     0.237394     0.368246      
0.505815     0.221582     0.358199      
0.456969     0.255390     0.394729      
0.475866     0.306018     0.438719      
0.350786     0.554899     0.411244      
0.251064     0.606598     0.358421      
0.221487     0.725123     0.379784      
0.291114     0.794913     0.455974      
0.388237     0.843792     0.542512      
0.485716     0.858190     0.618719      
0.563297     0.763820     0.640250      
0.545368     0.652835     0.587459      
0.462669     0.554737     0.607064      
0.478863     0.562094     0.392145      
0.762635     0.424391     0.612943      
0.664159     0.239150     0.663510      
0.611503     0.211119     0.338592      
0.403964     0.243421     0.388241      
0.435313     0.629376     0.499395      
0.516093     0.433023     0.636299      
0.544517     0.446020     0.363901      
0.680338     0.474525     0.514353      
0.782487     0.312751     0.701396      
0.552219     0.242458     0.584474      
0.675631     0.302866     0.417563      
0.481604     0.160441     0.300173      
0.412760     0.340146     0.486027      
