CHNCl 
1
20.000000     0.000000     0.000000
0.000000     20.000000     0.000000
0.000000     0.000000     20.000000
C H N Cl
31     14       1      8
Direct
0.377956     0.646915     0.462382      
0.338631     0.607132     0.420517      
0.282543     0.636604     0.391302      
0.265782     0.703760     0.403600      
0.304810     0.742925     0.446027      
0.361387     0.714637     0.476021      
0.410758     0.739504     0.522658      
0.421805     0.801838     0.552621      
0.476459     0.809835     0.595061      
0.520409     0.756395     0.607425      
0.510667     0.693764     0.578253      
0.455270     0.685816     0.536337      
0.466592     0.566762     0.499671      
0.479544     0.533727     0.559679      
0.510253     0.471590     0.559652      
0.530726     0.438183     0.500451      
0.517034     0.474286     0.439551      
0.485353     0.536486     0.439479      
0.564639     0.373445     0.501502      
0.616788     0.358640     0.549052      
0.670154     0.400274     0.562031      
0.721998     0.391115     0.606485      
0.719290     0.330182     0.643447      
0.666474     0.282981     0.634579      
0.618935     0.301134     0.587773      
0.544194     0.321752     0.451966      
0.593458     0.284825     0.413407      
0.571421     0.235998     0.367920      
0.505541     0.221552     0.358055      
0.457974     0.255249     0.393660      
0.473708     0.305096     0.441018      
0.350724     0.554798     0.411154      
0.250979     0.606649     0.358348      
0.221557     0.725178     0.379888      
0.291270     0.794872     0.456032      
0.388225     0.843699     0.542499      
0.485628     0.858180     0.618647      
0.563316     0.763934     0.640302      
0.545488     0.652860     0.587565      
0.463063     0.555411     0.607079      
0.477798     0.562623     0.392306      
0.761576     0.426677     0.611610      
0.662897     0.237698     0.662548      
0.609469     0.209073     0.337883      
0.404753     0.242247     0.385929      
0.435043     0.629783     0.499340      
0.516462     0.432537     0.636853      
0.544622     0.445508     0.363401      
0.680452     0.475528     0.514019      
0.781597     0.312801     0.700686      
0.551729     0.242102     0.584107      
0.675330     0.302974     0.418043      
0.482129     0.161216     0.300912      
0.412643     0.340385     0.485903      
