CHNCl 
1
20.000000     0.000000     0.000000
0.000000     20.000000     0.000000
0.000000     0.000000     20.000000
C H N Cl
31     14       1      8
Direct
0.377949     0.646869     0.462368      
0.338637     0.607132     0.420521      
0.282517     0.636655     0.391301      
0.265793     0.703710     0.403591      
0.304818     0.742933     0.446035      
0.361356     0.714670     0.476007      
0.410772     0.739522     0.522676      
0.421788     0.801833     0.552608      
0.476482     0.809826     0.595074      
0.520401     0.756405     0.607423      
0.510647     0.693760     0.578237      
0.455304     0.685830     0.536360      
0.466555     0.566821     0.499612      
0.479417     0.533913     0.559944      
0.510284     0.471422     0.559667      
0.531060     0.438218     0.500142      
0.516869     0.474418     0.440168      
0.485478     0.536259     0.439332      
0.563093     0.373342     0.500202      
0.616660     0.358633     0.549043      
0.671617     0.402573     0.561556      
0.720719     0.389650     0.606500      
0.719404     0.330531     0.643304      
0.668125     0.284489     0.634783      
0.616737     0.298947     0.587639      
0.544663     0.321388     0.451925      
0.589604     0.282627     0.411636      
0.574029     0.238310     0.369925      
0.507290     0.221281     0.357640      
0.455590     0.253217     0.391849      
0.476201     0.306725     0.442355      
0.350722     0.554797     0.411154      
0.250993     0.606636     0.358353      
0.221567     0.725189     0.379897      
0.291259     0.794872     0.456024      
0.388201     0.843676     0.542472      
0.485625     0.858182     0.618644      
0.563321     0.763911     0.640297      
0.545474     0.652849     0.587549      
0.463023     0.555519     0.607138      
0.477998     0.562281     0.392094      
0.762455     0.424374     0.613776      
0.664367     0.238440     0.663187      
0.609145     0.208957     0.337884      
0.402677     0.245395     0.389218      
0.435084     0.629749     0.499387      
0.516463     0.432552     0.636853      
0.544656     0.445484     0.363308      
0.680321     0.475127     0.514218      
0.781594     0.312759     0.700709      
0.552074     0.242483     0.584071      
0.675900     0.303070     0.418050      
0.481952     0.161254     0.300956      
0.412363     0.340433     0.485994      
