CHNCl 
1
20.000000     0.000000     0.000000
0.000000     20.000000     0.000000
0.000000     0.000000     20.000000
C H N Cl
31     14       1      8
Direct
0.377082     0.646473     0.461752      
0.337713     0.606616     0.419964      
0.281634     0.636040     0.390680      
0.264906     0.703214     0.402823      
0.303923     0.742483     0.445153      
0.360516     0.714240     0.475221      
0.409917     0.739213     0.521781      
0.420975     0.801635     0.551534      
0.475671     0.809751     0.593921      
0.519611     0.756316     0.606400      
0.509819     0.693612     0.577427      
0.454421     0.685578     0.535582      
0.465752     0.566441     0.498957      
0.478757     0.533535     0.559336      
0.509565     0.471264     0.559103      
0.530189     0.438042     0.499424      
0.516003     0.474037     0.439485      
0.484522     0.535974     0.438797      
0.563065     0.372891     0.499684      
0.615953     0.358424     0.548399      
0.670366     0.402695     0.560158      
0.720892     0.389515     0.606198      
0.718905     0.330133     0.642637      
0.667030     0.284508     0.633517      
0.616911     0.298974     0.587419      
0.543453     0.321225     0.451426      
0.590833     0.284482     0.413148      
0.572827     0.235159     0.367414      
0.505325     0.220631     0.358019      
0.456269     0.254783     0.393880      
0.475543     0.303745     0.439465      
0.350440     0.554640     0.411019      
0.250709     0.606475     0.358186      
0.221307     0.725005     0.379645      
0.291001     0.794751     0.455727      
0.387970     0.843617     0.542136      
0.485421     0.858171     0.618280      
0.563097     0.763923     0.639988      
0.545236     0.652814     0.587343      
0.462847     0.555416     0.606962      
0.477766     0.562075     0.391867      
0.762268     0.424734     0.613223      
0.664944     0.238711     0.663279      
0.611274     0.209842     0.338677      
0.403743     0.243589     0.387538      
0.434096     0.629400     0.498703      
0.515544     0.432209     0.635821      
0.542830     0.444780     0.362155      
0.679015     0.474973     0.512900      
0.781162     0.312836     0.699037      
0.551222     0.242237     0.583331      
0.674974     0.302961     0.416983      
0.482214     0.158719     0.301526      
0.411283     0.339678     0.484753      
