CHNCl 
1
20.000000     0.000000     0.000000
0.000000     20.000000     0.000000
0.000000     0.000000     20.000000
C H N Cl
31     14       1      8
Direct
0.378041     0.646857     0.462297      
0.338572     0.607095     0.420437      
0.282409     0.636609     0.391338      
0.265814     0.703818     0.403503      
0.304795     0.742847     0.446074      
0.361364     0.714484     0.476024      
0.410760     0.739428     0.522615      
0.421724     0.801721     0.552520      
0.476414     0.809672     0.594955      
0.520503     0.756353     0.607490      
0.510853     0.693739     0.578306      
0.455412     0.685967     0.536411      
0.466585     0.567074     0.499675      
0.478632     0.533605     0.560014      
0.512346     0.472741     0.560015      
0.530891     0.438572     0.499867      
0.514388     0.473718     0.439567      
0.485820     0.537209     0.439299      
0.563570     0.373335     0.500371      
0.615594     0.357729     0.549517      
0.670002     0.401861     0.559578      
0.720358     0.389543     0.605912      
0.718743     0.331361     0.644360      
0.668386     0.284163     0.634655      
0.618064     0.298015     0.588433      
0.545048     0.321839     0.451737      
0.591579     0.283961     0.413301      
0.572797     0.235070     0.367294      
0.504963     0.222496     0.357480      
0.457198     0.256501     0.395234      
0.477210     0.304661     0.441226      
0.350688     0.554789     0.411090      
0.250910     0.606658     0.358380      
0.221593     0.725224     0.379837      
0.291266     0.794846     0.456058      
0.388183     0.843650     0.542476      
0.485593     0.858135     0.618622      
0.563309     0.763958     0.640355      
0.545482     0.652805     0.587594      
0.462136     0.555100     0.607080      
0.478757     0.562827     0.392126      
0.762081     0.424846     0.612756      
0.665705     0.238520     0.663498      
0.611113     0.209546     0.338679      
0.403931     0.244278     0.388256      
0.435094     0.629952     0.499496      
0.516223     0.432287     0.637083      
0.545052     0.445437     0.363234      
0.680690     0.475495     0.514427      
0.781685     0.312302     0.700831      
0.552151     0.243016     0.583868      
0.675230     0.303181     0.418171      
0.482397     0.160798     0.300668      
0.411829     0.340438     0.485916      
