CHNCl 
1
20.000000     0.000000     0.000000
0.000000     20.000000     0.000000
0.000000     0.000000     20.000000
C H N Cl
31     14       1      8
Direct
0.376933     0.647223     0.462613      
0.338075     0.606817     0.420875      
0.282827     0.636299     0.390371      
0.265928     0.703066     0.404563      
0.305318     0.743296     0.445814      
0.361607     0.715244     0.476457      
0.411383     0.739293     0.523121      
0.422404     0.802014     0.552423      
0.476014     0.810375     0.596012      
0.520315     0.756796     0.606534      
0.510088     0.693527     0.578601      
0.454932     0.684811     0.536562      
0.464291     0.565635     0.500139      
0.480456     0.533531     0.560336      
0.510849     0.470888     0.559073      
0.530202     0.437981     0.499007      
0.516721     0.475280     0.439454      
0.485786     0.537339     0.439792      
0.564076     0.373309     0.499761      
0.616597     0.358257     0.549222      
0.670849     0.402732     0.561032      
0.721408     0.389581     0.607037      
0.719484     0.330221     0.643508      
0.667856     0.284232     0.634822      
0.617831     0.298568     0.588440      
0.543768     0.321777     0.452180      
0.591081     0.285468     0.413977      
0.573050     0.236357     0.368162      
0.505661     0.221669     0.358165      
0.456600     0.255685     0.394145      
0.475894     0.304269     0.440125      
0.350934     0.554804     0.411195      
0.251245     0.606822     0.357667      
0.221556     0.725001     0.380265      
0.291334     0.795033     0.455573      
0.388389     0.843647     0.542042      
0.485510     0.858286     0.619019      
0.563606     0.764035     0.639640      
0.545627     0.653035     0.587595      
0.464289     0.555526     0.607528      
0.478830     0.563188     0.392435      
0.762425     0.424746     0.613453      
0.665262     0.238693     0.663763      
0.611422     0.210244     0.338958      
0.403830     0.243919     0.387555      
0.435853     0.630183     0.496872      
0.516269     0.432588     0.637257      
0.544576     0.445302     0.363708      
0.680393     0.475268     0.514151      
0.781294     0.312792     0.700473      
0.551912     0.242494     0.583978      
0.675693     0.302880     0.417929      
0.481948     0.160982     0.300695      
0.412425     0.340483     0.486020      
