CHNCl 
1
20.000000     0.000000     0.000000
0.000000     20.000000     0.000000
0.000000     0.000000     20.000000
C H N Cl
31     14       1      8
Direct
0.376859     0.646461     0.463831      
0.338686     0.607171     0.420353      
0.281191     0.635869     0.393091      
0.266170     0.703830     0.403213      
0.303534     0.742411     0.447735      
0.362857     0.715539     0.474030      
0.412393     0.740141     0.520604      
0.420620     0.801086     0.554287      
0.476792     0.810061     0.594566      
0.519036     0.755746     0.609265      
0.510738     0.693855     0.578030      
0.454176     0.685214     0.537874      
0.466626     0.566815     0.499635      
0.479366     0.533569     0.559916      
0.510287     0.471391     0.559582      
0.531282     0.438497     0.499933      
0.516816     0.474490     0.439996      
0.485181     0.536388     0.439417      
0.562817     0.372692     0.500780      
0.617092     0.358104     0.548189      
0.670768     0.403095     0.561530      
0.721735     0.389410     0.607073      
0.719248     0.330196     0.643753      
0.667571     0.284501     0.634035      
0.617107     0.299504     0.588467      
0.543933     0.322344     0.451067      
0.591389     0.284316     0.414075      
0.573095     0.235982     0.367409      
0.505503     0.221517     0.358389      
0.456650     0.256039     0.394161      
0.476127     0.303932     0.440667      
0.352332     0.555590     0.408821      
0.252146     0.607260     0.356622      
0.223363     0.726055     0.377387      
0.291643     0.795145     0.455334      
0.388610     0.843798     0.541880      
0.487333     0.859054     0.616223      
0.564486     0.764490     0.638625      
0.547051     0.653681     0.585231      
0.463326     0.555525     0.607188      
0.478255     0.562385     0.392101      
0.762673     0.424542     0.613332      
0.665182     0.238570     0.663217      
0.611281     0.210271     0.338413      
0.403816     0.244236     0.387420      
0.435662     0.630106     0.498738      
0.516446     0.432557     0.636920      
0.544654     0.445465     0.363375      
0.680319     0.475107     0.514190      
0.781517     0.312852     0.700612      
0.551992     0.242377     0.584048      
0.675650     0.303012     0.417988      
0.482124     0.161118     0.300836      
0.412259     0.340523     0.486051      
