CHNCl 
1
20.000000     0.000000     0.000000
0.000000     20.000000     0.000000
0.000000     0.000000     20.000000
C H N Cl
31     14       1      8
Direct
0.377963     0.647203     0.462365      
0.338937     0.607286     0.420421      
0.282543     0.636389     0.391572      
0.265940     0.703619     0.403585      
0.304868     0.743065     0.445868      
0.361208     0.714754     0.476387      
0.410687     0.739281     0.523082      
0.421940     0.801847     0.552384      
0.476394     0.809994     0.595038      
0.520188     0.756466     0.607657      
0.510967     0.693903     0.578058      
0.455422     0.685629     0.536382      
0.466309     0.566632     0.497790      
0.479581     0.532608     0.557859      
0.511768     0.470926     0.559505      
0.532308     0.439049     0.499097      
0.517294     0.475976     0.439855      
0.484533     0.537157     0.437297      
0.563638     0.373112     0.498556      
0.615081     0.359334     0.548737      
0.669464     0.403247     0.561129      
0.719814     0.387490     0.606821      
0.718772     0.327965     0.643626      
0.666402     0.283288     0.634184      
0.616842     0.300128     0.588084      
0.543671     0.319988     0.451706      
0.591692     0.283754     0.413677      
0.571789     0.235708     0.367470      
0.503843     0.222476     0.358095      
0.454353     0.255602     0.393846      
0.475440     0.302889     0.440250      
0.350886     0.554861     0.411123      
0.250932     0.606548     0.358507      
0.221620     0.725114     0.379831      
0.291265     0.794934     0.455840      
0.388299     0.843684     0.542241      
0.485628     0.858245     0.618595      
0.563202     0.763942     0.640437      
0.545657     0.652957     0.587460      
0.462730     0.555165     0.606409      
0.477607     0.562153     0.391318      
0.762148     0.423938     0.613376      
0.664269     0.238159     0.663113      
0.610570     0.209783     0.338350      
0.403149     0.244086     0.387419      
0.435060     0.629794     0.498989      
0.516596     0.431272     0.639352      
0.543748     0.446331     0.365723      
0.680179     0.476166     0.513183      
0.782878     0.312912     0.701798      
0.554223     0.243730     0.584496      
0.677738     0.303838     0.418347      
0.482906     0.162171     0.302050      
0.412820     0.339973     0.485304      
