CHNCl 
1
20.000000     0.000000     0.000000
0.000000     20.000000     0.000000
0.000000     0.000000     20.000000
C H N Cl
31     14       1      8
Direct
0.377991     0.647063     0.462470      
0.338400     0.607435     0.420367      
0.282126     0.636156     0.390807      
0.266403     0.703407     0.403977      
0.304692     0.743514     0.446239      
0.361339     0.715176     0.476149      
0.410378     0.739872     0.522531      
0.421361     0.802270     0.552419      
0.476364     0.809142     0.594703      
0.521041     0.756449     0.607909      
0.510565     0.694136     0.578364      
0.455129     0.685910     0.536292      
0.467293     0.565321     0.499574      
0.479373     0.534024     0.561364      
0.510068     0.471706     0.560568      
0.530761     0.438650     0.500053      
0.516845     0.474621     0.439269      
0.485356     0.536544     0.437997      
0.564045     0.372433     0.500325      
0.617378     0.358685     0.550228      
0.671695     0.404623     0.559970      
0.721919     0.391701     0.606150      
0.716790     0.330792     0.641174      
0.665976     0.282576     0.634476      
0.616631     0.297829     0.588104      
0.543319     0.320962     0.450829      
0.592643     0.284677     0.413538      
0.575491     0.235781     0.367340      
0.506473     0.223974     0.360405      
0.454523     0.256538     0.395073      
0.474048     0.304863     0.440960      
0.350716     0.554851     0.411341      
0.250727     0.606640     0.358222      
0.221801     0.725160     0.379945      
0.291038     0.795045     0.455803      
0.388217     0.843969     0.542644      
0.485517     0.857981     0.618580      
0.563468     0.764094     0.640446      
0.545395     0.652861     0.587400      
0.462668     0.555833     0.607302      
0.477957     0.562672     0.391874      
0.762904     0.424885     0.613720      
0.665078     0.238340     0.663892      
0.611584     0.209742     0.338290      
0.403403     0.243620     0.387372      
0.435525     0.628845     0.499359      
0.516416     0.432760     0.636526      
0.544517     0.445647     0.363640      
0.680336     0.474237     0.514907      
0.782786     0.312462     0.701775      
0.552665     0.242841     0.584236      
0.675048     0.302735     0.417843      
0.481704     0.160069     0.299832      
0.412961     0.339999     0.485455      
