CHNCl 
1
20.000000     0.000000     0.000000
0.000000     20.000000     0.000000
0.000000     0.000000     20.000000
C H N Cl
31     14       1      8
Direct
0.378116     0.647035     0.462614      
0.338801     0.607452     0.420767      
0.282719     0.636731     0.391388      
0.265545     0.703767     0.403527      
0.304567     0.743084     0.445845      
0.361294     0.714906     0.476007      
0.410656     0.739744     0.522710      
0.421855     0.802135     0.552811      
0.476602     0.810117     0.595200      
0.520188     0.756340     0.607305      
0.510249     0.693828     0.577988      
0.455063     0.685749     0.536125      
0.466938     0.565934     0.499550      
0.480583     0.533057     0.559734      
0.508638     0.469689     0.559287      
0.531162     0.437823     0.500097      
0.519388     0.474509     0.440619      
0.485441     0.534930     0.439656      
0.563514     0.373486     0.500283      
0.615302     0.358713     0.548660      
0.670600     0.401492     0.558623      
0.719898     0.389449     0.606201      
0.718545     0.330877     0.644008      
0.667348     0.284877     0.632950      
0.616197     0.300112     0.588229      
0.544549     0.322680     0.452303      
0.591123     0.286299     0.413457      
0.572825     0.236009     0.368882      
0.505344     0.222798     0.357371      
0.457509     0.256721     0.395114      
0.477201     0.303851     0.442316      
0.350751     0.554880     0.411247      
0.251095     0.606612     0.358377      
0.221456     0.725100     0.379855      
0.291158     0.794914     0.455946      
0.388234     0.843778     0.542537      
0.485764     0.858235     0.618706      
0.563292     0.763787     0.640244      
0.545388     0.652886     0.587446      
0.463959     0.555484     0.607180      
0.477552     0.561421     0.392003      
0.761716     0.425028     0.613173      
0.665239     0.238419     0.662506      
0.611422     0.209642     0.339697      
0.404001     0.244542     0.388013      
0.435279     0.629278     0.499329      
0.516542     0.433160     0.636317      
0.544113     0.445798     0.363816      
0.680425     0.474919     0.514819      
0.782661     0.312362     0.701591      
0.552587     0.242734     0.584080      
0.675180     0.302752     0.417991      
0.481863     0.160108     0.300040      
0.412350     0.340346     0.485538      
