CHNCl 
1
20.000000     0.000000     0.000000
0.000000     20.000000     0.000000
0.000000     0.000000     20.000000
C H N Cl
31     14       1      8
Direct
0.377975     0.646903     0.462397      
0.338623     0.607130     0.420512      
0.282535     0.636610     0.391298      
0.265791     0.703751     0.403604      
0.304799     0.742934     0.446022      
0.361392     0.714636     0.476022      
0.410770     0.739500     0.522666      
0.421795     0.801834     0.552613      
0.476462     0.809842     0.595066      
0.520411     0.756384     0.607423      
0.510656     0.693768     0.578247      
0.455282     0.685841     0.536350      
0.466580     0.566767     0.499567      
0.479473     0.533816     0.559944      
0.510239     0.471527     0.559725      
0.530924     0.438336     0.500056      
0.516888     0.474385     0.440119      
0.485429     0.536343     0.439401      
0.563692     0.373126     0.500322      
0.616527     0.358556     0.549049      
0.670962     0.402775     0.560919      
0.721386     0.389547     0.607059      
0.719290     0.330155     0.643473      
0.667413     0.284555     0.634219      
0.617390     0.299075     0.588027      
0.543953     0.321566     0.452004      
0.591193     0.284799     0.413569      
0.572296     0.236318     0.368166      
0.505539     0.221606     0.358111      
0.456544     0.255659     0.394168      
0.475985     0.304324     0.440012      
0.350707     0.554801     0.411143      
0.250971     0.606659     0.358346      
0.221561     0.725172     0.379887      
0.291248     0.794870     0.456016      
0.388207     0.843680     0.542477      
0.485639     0.858177     0.618653      
0.563320     0.763918     0.640298      
0.545477     0.652853     0.587552      
0.463033     0.555496     0.607141      
0.478064     0.562166     0.392092      
0.762409     0.424729     0.613495      
0.665032     0.238733     0.663462      
0.613813     0.208360     0.336811      
0.403859     0.243911     0.387613      
0.435054     0.629783     0.499372      
0.516462     0.432553     0.636852      
0.544656     0.445483     0.363316      
0.680330     0.475102     0.514247      
0.781607     0.312802     0.700693      
0.552033     0.242449     0.584069      
0.675736     0.303003     0.418014      
0.482135     0.161217     0.300912      
0.412265     0.340530     0.486109      
