CHNCl 
1
20.000000     0.000000     0.000000
0.000000     20.000000     0.000000
0.000000     0.000000     20.000000
C H N Cl
31     14       1      8
Direct
0.377939     0.646877     0.462403      
0.338607     0.607173     0.420511      
0.282540     0.636632     0.391310      
0.265815     0.703717     0.403610      
0.304781     0.742955     0.446017      
0.361391     0.714601     0.475989      
0.410796     0.739481     0.522697      
0.421790     0.801862     0.552620      
0.476477     0.809801     0.595059      
0.520389     0.756398     0.607412      
0.510635     0.693803     0.578249      
0.455322     0.685849     0.536339      
0.466548     0.566833     0.499583      
0.479462     0.533535     0.561623      
0.510225     0.472066     0.557225      
0.530740     0.438654     0.500084      
0.516466     0.474743     0.442567      
0.485661     0.536185     0.437731      
0.563164     0.374368     0.500411      
0.616762     0.358706     0.548848      
0.671243     0.403613     0.560605      
0.720937     0.388781     0.607243      
0.719327     0.330223     0.643454      
0.667855     0.285170     0.634147      
0.616501     0.297972     0.588172      
0.543704     0.321507     0.452210      
0.593039     0.284880     0.413435      
0.572012     0.235852     0.367714      
0.505428     0.221589     0.358106      
0.457686     0.255497     0.393904      
0.474755     0.304727     0.440484      
0.350693     0.554804     0.411154      
0.250964     0.606677     0.358347      
0.221560     0.725122     0.379865      
0.291234     0.794876     0.456010      
0.388215     0.843698     0.542487      
0.485682     0.858147     0.618675      
0.563308     0.763941     0.640297      
0.545484     0.652871     0.587540      
0.463800     0.553647     0.608693      
0.479057     0.560470     0.390502      
0.762620     0.424017     0.614091      
0.666193     0.239192     0.664005      
0.609908     0.209205     0.338008      
0.404427     0.243033     0.386746      
0.435084     0.629721     0.499367      
0.516457     0.432425     0.637277      
0.544761     0.445408     0.362897      
0.680283     0.474954     0.514315      
0.781610     0.312793     0.700701      
0.552205     0.242625     0.584052      
0.675417     0.302966     0.418033      
0.482141     0.161212     0.300906      
0.412476     0.340455     0.486008      
