CHNCl 
1
20.000000     0.000000     0.000000
0.000000     20.000000     0.000000
0.000000     0.000000     20.000000
C H N Cl
31     14       1      8
Direct
0.377686     0.646787     0.463025      
0.338440     0.606918     0.421165      
0.282727     0.636500     0.391361      
0.266230     0.703788     0.403205      
0.304855     0.742911     0.446039      
0.361068     0.714501     0.476644      
0.410455     0.739371     0.523288      
0.421911     0.801945     0.552593      
0.476867     0.810161     0.594634      
0.520467     0.756543     0.607511      
0.510326     0.693701     0.578929      
0.454974     0.685704     0.537002      
0.466791     0.566900     0.499205      
0.479666     0.533959     0.559505      
0.510292     0.471663     0.559384      
0.530940     0.438350     0.499792      
0.517055     0.474402     0.439786      
0.485735     0.536487     0.438990      
0.563847     0.373200     0.500230      
0.616675     0.358869     0.549038      
0.671136     0.403134     0.560764      
0.721792     0.389947     0.606806      
0.719633     0.330470     0.643227      
0.667785     0.284958     0.633936      
0.617673     0.299404     0.587967      
0.544341     0.321469     0.451978      
0.591716     0.284889     0.413459      
0.573677     0.235952     0.367153      
0.506038     0.221550     0.357909      
0.457235     0.255404     0.394212      
0.476452     0.304069     0.439959      
0.350646     0.554719     0.411406      
0.251067     0.606632     0.358319      
0.221802     0.725226     0.379594      
0.291282     0.794886     0.455939      
0.388291     0.843732     0.542382      
0.485879     0.858339     0.618340      
0.563364     0.763981     0.640284      
0.545346     0.652820     0.587825      
0.463059     0.555533     0.606995      
0.478143     0.562216     0.391913      
0.762526     0.424863     0.613403      
0.665163     0.238841     0.663398      
0.611512     0.210139     0.338529      
0.404024     0.243766     0.387639      
0.434923     0.629747     0.499716      
0.515846     0.433707     0.636683      
0.545108     0.444485     0.363081      
0.679199     0.475532     0.513207      
0.780525     0.310959     0.701369      
0.553176     0.242377     0.585026      
0.676475     0.304007     0.419108      
0.479636     0.161597     0.301536      
0.411882     0.339262     0.484763      
