CHNCl 
1
20.000000     0.000000     0.000000
0.000000     20.000000     0.000000
0.000000     0.000000     20.000000
C H N Cl
31     14       1      8
Direct
0.377744     0.646522     0.462070      
0.338187     0.606149     0.419823      
0.282124     0.636419     0.391036      
0.266397     0.703812     0.403956      
0.305356     0.742690     0.446397      
0.361492     0.714040     0.475777      
0.409922     0.740412     0.522413      
0.420399     0.802838     0.551994      
0.475949     0.808033     0.594026      
0.521643     0.756015     0.608185      
0.512408     0.693313     0.579329      
0.455806     0.687700     0.537461      
0.464080     0.567218     0.499075      
0.479565     0.534316     0.558842      
0.510737     0.471826     0.559462      
0.530531     0.437012     0.500466      
0.517536     0.474142     0.441023      
0.485740     0.536181     0.439765      
0.564682     0.372702     0.499560      
0.616877     0.358323     0.548625      
0.670426     0.403173     0.561218      
0.721322     0.389362     0.606559      
0.718887     0.330442     0.643755      
0.667522     0.284427     0.633777      
0.616895     0.299519     0.588475      
0.543827     0.321560     0.452072      
0.591190     0.285423     0.413896      
0.573090     0.236348     0.368203      
0.505665     0.221797     0.358190      
0.456537     0.255677     0.394238      
0.475816     0.304371     0.440073      
0.350516     0.554512     0.410841      
0.250626     0.606888     0.358223      
0.221773     0.725361     0.380076      
0.291497     0.794795     0.456249      
0.388136     0.844320     0.542660      
0.485534     0.857627     0.618409      
0.563437     0.764563     0.640655      
0.545728     0.652439     0.587587      
0.463743     0.555826     0.606971      
0.478940     0.562051     0.391967      
0.762599     0.424502     0.613027      
0.665269     0.238468     0.663025      
0.611417     0.210214     0.338975      
0.403820     0.243865     0.387611      
0.434729     0.631492     0.499902      
0.516487     0.432209     0.637082      
0.544688     0.445342     0.362908      
0.680363     0.475001     0.514318      
0.781758     0.312746     0.700844      
0.552093     0.242444     0.584073      
0.675634     0.302903     0.417948      
0.481973     0.160985     0.300699      
0.412381     0.340469     0.486022      
