CHNCl 
1
20.000000     0.000000     0.000000
0.000000     20.000000     0.000000
0.000000     0.000000     20.000000
C H N Cl
31     14       1      8
Direct
0.377751     0.646803     0.462673      
0.338557     0.607130     0.420546      
0.282615     0.636697     0.391139      
0.265819     0.703806     0.403543      
0.304660     0.742887     0.446209      
0.361161     0.714530     0.476324      
0.410565     0.739400     0.522937      
0.422014     0.801924     0.552333      
0.476820     0.809981     0.594597      
0.520377     0.756324     0.607471      
0.510252     0.693545     0.578774      
0.454924     0.685666     0.536812      
0.466798     0.566889     0.499414      
0.480055     0.533749     0.559592      
0.510943     0.471570     0.558865      
0.531491     0.438596     0.499079      
0.517336     0.474919     0.439258      
0.485720     0.536844     0.439074      
0.563711     0.373107     0.500140      
0.616103     0.358366     0.549420      
0.670444     0.402684     0.561526      
0.720728     0.389814     0.607913      
0.718922     0.330417     0.644293      
0.667031     0.284829     0.635125      
0.617060     0.299006     0.588717      
0.543612     0.321363     0.452257      
0.590989     0.284657     0.414087      
0.573019     0.235428     0.368273      
0.505465     0.221204     0.358721      
0.456390     0.255100     0.394825      
0.475665     0.304016     0.440470      
0.350701     0.554802     0.411129      
0.251036     0.606710     0.358234      
0.221597     0.725206     0.379831      
0.291201     0.794854     0.456085      
0.388347     0.843744     0.542295      
0.485854     0.858269     0.618370      
0.563321     0.763899     0.640299      
0.545305     0.652758     0.587780      
0.463192     0.555363     0.607078      
0.478054     0.562394     0.391992      
0.762214     0.424833     0.613686      
0.664963     0.238778     0.663705      
0.611312     0.209964     0.338864      
0.403777     0.243719     0.387751      
0.434729     0.629627     0.499773      
0.517773     0.431248     0.634536      
0.544285     0.447608     0.360816      
0.680270     0.474207     0.514381      
0.782605     0.312550     0.700149      
0.552664     0.240837     0.585387      
0.674907     0.304403     0.418990      
0.482371     0.161885     0.300479      
0.411690     0.340878     0.486220      
