CHNCl 
1
20.000000     0.000000     0.000000
0.000000     20.000000     0.000000
0.000000     0.000000     20.000000
C H N Cl
31     14       1      8
Direct
0.378287     0.646833     0.461609      
0.339643     0.606919     0.419193      
0.283913     0.636217     0.389127      
0.266819     0.703326     0.401104      
0.305040     0.742621     0.444148      
0.361261     0.714494     0.475023      
0.409866     0.739517     0.522395      
0.420148     0.801881     0.552557      
0.474115     0.810112     0.595868      
0.518115     0.756840     0.608815      
0.509132     0.694214     0.579376      
0.454422     0.686034     0.536662      
0.466705     0.567016     0.499668      
0.479488     0.534021     0.560050      
0.510291     0.471742     0.559841      
0.531062     0.438565     0.500197      
0.517177     0.474671     0.440263      
0.485760     0.536634     0.439542      
0.563776     0.373324     0.500469      
0.616583     0.358712     0.549212      
0.671040     0.402897     0.561100      
0.721447     0.389629     0.607246      
0.719322     0.330226     0.643636      
0.667426     0.284656     0.634354      
0.617414     0.299215     0.588165      
0.544037     0.321788     0.452129      
0.591315     0.284996     0.413777      
0.573161     0.235959     0.367796      
0.505609     0.221779     0.358232      
0.456655     0.255922     0.394233      
0.476071     0.304591     0.440066      
0.351077     0.554742     0.410826      
0.251529     0.606513     0.357594      
0.221950     0.725014     0.378961      
0.291229     0.794771     0.455410      
0.387715     0.843648     0.542322      
0.484787     0.858258     0.618944      
0.562504     0.764095     0.640893      
0.545066     0.653034     0.588009      
0.462996     0.555527     0.607160      
0.478189     0.562285     0.392082      
0.762438     0.424751     0.613553      
0.665029     0.238743     0.663503      
0.611348     0.210066     0.338765      
0.403843     0.243985     0.387609      
0.434932     0.629917     0.499343      
0.516369     0.432832     0.637022      
0.545340     0.445993     0.363623      
0.680576     0.475297     0.514561      
0.781656     0.312835     0.700957      
0.552047     0.242723     0.584221      
0.675918     0.303203     0.418415      
0.482344     0.161504     0.301179      
0.412371     0.341100     0.486051      
