CHNCl 
1
20.000000     0.000000     0.000000
0.000000     20.000000     0.000000
0.000000     0.000000     20.000000
C H N Cl
31     14       1      8
Direct
0.379051     0.646177     0.462933      
0.337008     0.606993     0.419306      
0.282876     0.636589     0.391529      
0.266616     0.704653     0.404524      
0.303567     0.742105     0.444824      
0.361517     0.715929     0.476609      
0.409693     0.740142     0.522097      
0.423158     0.802297     0.553768      
0.475238     0.809741     0.594146      
0.520241     0.756102     0.607205      
0.511706     0.694949     0.579427      
0.455211     0.684599     0.535827      
0.465330     0.569267     0.499562      
0.479266     0.534126     0.560849      
0.511446     0.469375     0.558623      
0.529778     0.440619     0.500039      
0.517886     0.472120     0.441247      
0.485302     0.536694     0.438512      
0.564017     0.372476     0.500325      
0.616520     0.358530     0.549163      
0.670857     0.402693     0.560881      
0.721387     0.389699     0.606951      
0.719336     0.330030     0.643588      
0.667341     0.284530     0.634178      
0.617406     0.299195     0.587958      
0.543975     0.321562     0.451897      
0.591113     0.284887     0.413661      
0.573114     0.235849     0.367637      
0.505565     0.221480     0.357987      
0.456433     0.255758     0.394282      
0.476107     0.304356     0.440047      
0.351950     0.554891     0.412062      
0.251621     0.605965     0.358546      
0.221687     0.724735     0.379823      
0.292402     0.794788     0.456822      
0.387624     0.842743     0.541706      
0.485944     0.857810     0.618736      
0.563492     0.762998     0.640105      
0.544680     0.651932     0.586649      
0.462480     0.556604     0.606831      
0.477516     0.563293     0.392329      
0.762494     0.424669     0.613602      
0.665163     0.238756     0.663544      
0.611209     0.209955     0.338621      
0.403820     0.243799     0.387501      
0.435642     0.628585     0.499366      
0.516420     0.432633     0.636894      
0.544618     0.445565     0.363273      
0.680342     0.475111     0.514253      
0.781602     0.312805     0.700687      
0.552027     0.242442     0.584072      
0.675742     0.303003     0.418011      
0.482136     0.161225     0.300920      
0.412250     0.340525     0.486104      
