CHNCl 
1
20.000000     0.000000     0.000000
0.000000     20.000000     0.000000
0.000000     0.000000     20.000000
C H N Cl
31     14       1      8
Direct
0.377976     0.646903     0.462395      
0.338620     0.607129     0.420515      
0.282535     0.636611     0.391299      
0.265791     0.703751     0.403603      
0.304799     0.742934     0.446020      
0.361391     0.714634     0.476023      
0.410774     0.739500     0.522663      
0.421794     0.801829     0.552620      
0.476460     0.809843     0.595071      
0.520408     0.756384     0.607416      
0.510659     0.693771     0.578239      
0.455279     0.685839     0.536355      
0.466574     0.566771     0.499564      
0.479485     0.533803     0.559931      
0.510242     0.471519     0.559734      
0.530917     0.438334     0.500074      
0.516888     0.474391     0.440142      
0.485426     0.536335     0.439421      
0.563721     0.373166     0.500315      
0.616529     0.358564     0.549069      
0.670538     0.403154     0.561435      
0.722512     0.388507     0.605528      
0.718685     0.330711     0.644310      
0.668013     0.283988     0.633370      
0.617200     0.299263     0.588340      
0.543930     0.321569     0.452011      
0.591218     0.284790     0.413628      
0.573069     0.235887     0.367485      
0.505513     0.221555     0.358173      
0.456520     0.255735     0.394117      
0.475947     0.304313     0.440045      
0.350711     0.554798     0.411136      
0.250971     0.606660     0.358344      
0.221557     0.725171     0.379890      
0.291247     0.794871     0.456017      
0.388214     0.843682     0.542468      
0.485644     0.858181     0.618648      
0.563314     0.763915     0.640305      
0.545469     0.652849     0.587563      
0.463035     0.555485     0.607130      
0.478066     0.562191     0.392047      
0.760603     0.426387     0.615996      
0.664032     0.239620     0.664799      
0.611332     0.209876     0.338840      
0.403819     0.243793     0.387702      
0.435058     0.629788     0.499372      
0.516466     0.432553     0.636840      
0.544659     0.445480     0.363305      
0.680385     0.475047     0.514175      
0.781688     0.312732     0.700581      
0.552058     0.242426     0.584035      
0.675738     0.303004     0.418001      
0.482133     0.161218     0.300899      
0.412278     0.340524     0.486096      
