CHNCl 
1
20.000000     0.000000     0.000000
0.000000     20.000000     0.000000
0.000000     0.000000     20.000000
C H N Cl
31     14       1      8
Direct
0.377975     0.646903     0.462397      
0.338622     0.607132     0.420513      
0.282536     0.636610     0.391299      
0.265791     0.703751     0.403604      
0.304799     0.742933     0.446022      
0.361392     0.714636     0.476022      
0.410770     0.739500     0.522666      
0.421795     0.801834     0.552613      
0.476462     0.809842     0.595066      
0.520411     0.756384     0.607423      
0.510656     0.693768     0.578247      
0.455282     0.685841     0.536350      
0.466580     0.566767     0.499567      
0.479472     0.533816     0.559945      
0.510239     0.471527     0.559725      
0.530924     0.438337     0.500056      
0.516888     0.474385     0.440119      
0.485431     0.536334     0.439417      
0.563692     0.373125     0.500322      
0.616528     0.358555     0.549050      
0.670962     0.402775     0.560918      
0.721384     0.389545     0.607059      
0.719290     0.330155     0.643473      
0.667413     0.284556     0.634218      
0.617390     0.299075     0.588027      
0.543953     0.321569     0.452007      
0.591217     0.284828     0.413596      
0.573061     0.235807     0.367596      
0.505513     0.221568     0.358075      
0.455802     0.255501     0.394081      
0.475984     0.304348     0.440036      
0.350708     0.554796     0.411142      
0.250970     0.606659     0.358345      
0.221559     0.725173     0.379887      
0.291247     0.794872     0.456016      
0.388206     0.843681     0.542477      
0.485639     0.858178     0.618654      
0.563320     0.763918     0.640298      
0.545476     0.652853     0.587551      
0.463035     0.555494     0.607136      
0.478056     0.562194     0.392040      
0.762415     0.424734     0.613496      
0.665032     0.238728     0.663465      
0.611289     0.210051     0.338709      
0.406315     0.244455     0.387916      
0.435054     0.629783     0.499372      
0.516462     0.432553     0.636852      
0.544656     0.445483     0.363316      
0.680330     0.475102     0.514247      
0.781607     0.312802     0.700693      
0.552033     0.242449     0.584069      
0.675734     0.303002     0.418014      
0.482136     0.161220     0.300916      
0.412266     0.340529     0.486108      
