CHNCl 
1
20.000000     0.000000     0.000000
0.000000     20.000000     0.000000
0.000000     0.000000     20.000000
C H N Cl
31     14       1      8
Direct
0.376493     0.646081     0.464360      
0.339470     0.607335     0.419240      
0.282888     0.636795     0.390875      
0.266700     0.704286     0.402241      
0.305089     0.743302     0.445446      
0.361613     0.714848     0.475602      
0.410543     0.739483     0.522989      
0.421290     0.801807     0.553225      
0.475535     0.809452     0.596339      
0.519975     0.756168     0.607950      
0.510022     0.693212     0.579483      
0.456736     0.686485     0.534523      
0.466721     0.566512     0.499567      
0.479352     0.533732     0.560067      
0.510334     0.471578     0.559865      
0.530805     0.438459     0.500054      
0.516855     0.474368     0.439990      
0.485540     0.536357     0.439293      
0.563683     0.373199     0.500294      
0.616628     0.358506     0.548893      
0.670892     0.402829     0.560968      
0.721366     0.389511     0.607017      
0.719299     0.330172     0.643519      
0.667485     0.284512     0.634247      
0.617395     0.299133     0.588134      
0.543927     0.321415     0.452208      
0.591164     0.284890     0.413471      
0.573045     0.235727     0.367587      
0.505481     0.221602     0.358043      
0.456589     0.255651     0.394222      
0.475971     0.304437     0.439937      
0.349896     0.554346     0.412233      
0.249234     0.605824     0.360791      
0.219769     0.724227     0.382332      
0.289820     0.794181     0.457952      
0.389597     0.844409     0.540595      
0.487458     0.859053     0.616190      
0.565057     0.764827     0.637799      
0.546395     0.653271     0.586370      
0.463127     0.555606     0.607149      
0.477902     0.562179     0.392031      
0.762424     0.424711     0.613453      
0.665075     0.238689     0.663455      
0.611314     0.209975     0.338724      
0.403827     0.243865     0.387659      
0.435117     0.629733     0.499348      
0.516438     0.432595     0.636786      
0.544633     0.445526     0.363378      
0.680330     0.475087     0.514252      
0.781586     0.312799     0.700681      
0.552006     0.242427     0.584058      
0.675767     0.303008     0.418025      
0.482148     0.161232     0.300923      
0.412279     0.340519     0.486105      
