CHNCl 
1
20.000000     0.000000     0.000000
0.000000     20.000000     0.000000
0.000000     0.000000     20.000000
C H N Cl
31     14       1      8
Direct
0.378368     0.646745     0.462646      
0.338565     0.607048     0.420240      
0.281996     0.636235     0.390994      
0.265933     0.703643     0.403772      
0.304698     0.743583     0.445952      
0.361306     0.714769     0.476052      
0.410781     0.739414     0.522665      
0.422141     0.801503     0.552561      
0.476461     0.809913     0.595178      
0.519916     0.756198     0.607175      
0.510504     0.693841     0.577995      
0.455377     0.686148     0.536543      
0.466168     0.566374     0.499725      
0.479638     0.534088     0.560159      
0.510340     0.471877     0.558986      
0.530245     0.437604     0.500023      
0.517100     0.474438     0.439358      
0.485616     0.536788     0.438956      
0.565866     0.373553     0.502822      
0.617926     0.358072     0.549934      
0.670424     0.402325     0.560861      
0.719501     0.387872     0.606809      
0.720283     0.329933     0.644350      
0.667627     0.286660     0.632970      
0.617138     0.299364     0.587829      
0.544291     0.322982     0.452439      
0.591049     0.284486     0.413547      
0.574505     0.234962     0.366664      
0.505881     0.222335     0.358786      
0.454532     0.255224     0.393930      
0.475215     0.304180     0.440102      
0.350494     0.554685     0.411231      
0.250898     0.606752     0.357985      
0.221695     0.725216     0.379811      
0.290888     0.794942     0.456181      
0.388095     0.843451     0.542627      
0.485747     0.858219     0.618589      
0.563348     0.763811     0.640009      
0.545267     0.652776     0.587617      
0.462584     0.555192     0.607192      
0.477353     0.562231     0.391972      
0.761675     0.424523     0.612980      
0.664773     0.239243     0.662922      
0.611577     0.209713     0.338262      
0.403328     0.243487     0.387104      
0.435924     0.630021     0.500059      
0.516465     0.432450     0.637051      
0.544574     0.445550     0.363537      
0.680358     0.475328     0.514098      
0.781384     0.312859     0.700494      
0.551920     0.242353     0.584044      
0.675684     0.302991     0.417986      
0.482060     0.161046     0.300757      
0.412478     0.340418     0.485952      
