CHNCl 
1
20.000000     0.000000     0.000000
0.000000     20.000000     0.000000
0.000000     0.000000     20.000000
C H N Cl
31     14       1      8
Direct
0.378113     0.646433     0.462378      
0.339039     0.606619     0.420704      
0.283236     0.637361     0.392081      
0.264728     0.704329     0.402973      
0.304730     0.742252     0.445643      
0.361436     0.713825     0.475755      
0.411378     0.738994     0.522927      
0.422381     0.801498     0.552991      
0.476631     0.811020     0.595691      
0.519405     0.756273     0.606655      
0.510837     0.693136     0.578069      
0.455580     0.685467     0.536373      
0.465689     0.568577     0.499566      
0.479317     0.534211     0.558624      
0.510319     0.471740     0.558451      
0.531382     0.437359     0.499913      
0.516814     0.474343     0.441086      
0.485271     0.536535     0.440823      
0.563957     0.372602     0.500378      
0.617067     0.361056     0.549677      
0.671569     0.405150     0.558859      
0.719929     0.389581     0.606232      
0.718956     0.330063     0.643034      
0.667774     0.283524     0.635443      
0.619622     0.300425     0.587813      
0.541793     0.322680     0.451348      
0.588879     0.283897     0.413828      
0.573550     0.234968     0.366450      
0.505725     0.221697     0.358446      
0.457379     0.256759     0.394879      
0.473886     0.305145     0.441928      
0.350599     0.554663     0.410860      
0.251323     0.606676     0.358605      
0.221144     0.725128     0.379725      
0.291509     0.794681     0.456277      
0.388211     0.843369     0.542229      
0.485932     0.858484     0.618802      
0.563098     0.763657     0.640045      
0.545655     0.652861     0.587833      
0.463219     0.555262     0.606988      
0.478108     0.561869     0.392231      
0.762075     0.424581     0.613655      
0.664857     0.238442     0.663825      
0.611618     0.210011     0.338387      
0.404127     0.244054     0.387465      
0.434550     0.630728     0.499382      
0.516557     0.432177     0.637389      
0.544845     0.445232     0.362950      
0.680105     0.473751     0.515110      
0.781736     0.312587     0.700912      
0.551079     0.241537     0.584108      
0.676988     0.303216     0.417988      
0.482239     0.161044     0.300749      
0.413385     0.339959     0.485331      
