CHNCl 
1
20.000000     0.000000     0.000000
0.000000     20.000000     0.000000
0.000000     0.000000     20.000000
C H N Cl
31     14       1      8
Direct
0.377502     0.646818     0.462125      
0.338425     0.606278     0.420000      
0.282390     0.636299     0.391148      
0.266271     0.703701     0.403829      
0.304554     0.743711     0.446182      
0.361213     0.715005     0.475887      
0.410569     0.739961     0.522697      
0.421204     0.802566     0.552499      
0.476237     0.809376     0.594778      
0.520764     0.756282     0.607678      
0.511501     0.693422     0.578779      
0.455587     0.686223     0.536715      
0.466459     0.566437     0.499533      
0.479915     0.533335     0.559778      
0.510022     0.470939     0.559654      
0.531319     0.438591     0.500032      
0.516992     0.473797     0.440056      
0.485898     0.535701     0.439602      
0.563396     0.374192     0.500393      
0.614477     0.359752     0.551550      
0.672258     0.401342     0.559737      
0.721379     0.389962     0.608019      
0.719931     0.329685     0.642909      
0.666925     0.285106     0.634804      
0.618389     0.297741     0.586366      
0.544188     0.323467     0.450063      
0.591487     0.283471     0.414869      
0.572874     0.236230     0.367001      
0.505446     0.220811     0.358415      
0.456196     0.255683     0.393206      
0.476246     0.302709     0.440798      
0.350682     0.554549     0.411013      
0.250710     0.606818     0.358281      
0.221654     0.725049     0.379929      
0.291012     0.795062     0.456020      
0.388195     0.844033     0.542498      
0.485731     0.858028     0.618551      
0.563379     0.764250     0.640350      
0.545739     0.652738     0.587605      
0.463389     0.555388     0.607146      
0.478360     0.561992     0.392067      
0.761903     0.425321     0.614479      
0.664393     0.239358     0.664355      
0.611194     0.210710     0.337934      
0.403666     0.244409     0.386776      
0.434958     0.629957     0.499384      
0.516460     0.432657     0.636751      
0.544559     0.445607     0.363499      
0.680292     0.475453     0.514109      
0.781512     0.312865     0.700526      
0.552120     0.242647     0.584156      
0.675651     0.303072     0.417957      
0.482190     0.161454     0.301182      
0.412008     0.340771     0.486279      
