CHNCl 
1
20.000000     0.000000     0.000000
0.000000     20.000000     0.000000
0.000000     0.000000     20.000000
C H N Cl
31     14       1      8
Direct
0.377956     0.646875     0.462430      
0.338616     0.607102     0.420536      
0.282545     0.636584     0.391296      
0.265806     0.703729     0.403589      
0.304799     0.742910     0.446021      
0.361378     0.714611     0.476048      
0.410759     0.739476     0.522689      
0.421812     0.801817     0.552614      
0.476491     0.809823     0.595051      
0.520422     0.756354     0.607426      
0.510642     0.693732     0.578273      
0.455265     0.685813     0.536379      
0.466595     0.566757     0.499558      
0.479404     0.533781     0.559951      
0.510228     0.471522     0.559678      
0.530904     0.438472     0.499987      
0.516948     0.474463     0.440049      
0.485523     0.536434     0.439362      
0.563632     0.373257     0.500289      
0.617175     0.358945     0.548410      
0.671898     0.402910     0.560348      
0.722354     0.389207     0.606377      
0.720012     0.329819     0.642778      
0.668141     0.284327     0.633141      
0.618099     0.299301     0.587158      
0.543192     0.321288     0.452630      
0.590563     0.284383     0.414512      
0.572767     0.235001     0.368809      
0.505307     0.220747     0.358878      
0.456192     0.254651     0.394903      
0.475261     0.303643     0.440607      
0.350708     0.554788     0.411149      
0.250977     0.606652     0.358340      
0.221569     0.725168     0.379875      
0.291248     0.794866     0.456011      
0.388215     0.843678     0.542475      
0.485654     0.858174     0.618642      
0.563325     0.763909     0.640297      
0.545469     0.652839     0.587562      
0.462992     0.555472     0.607132      
0.478092     0.562240     0.392041      
0.762683     0.424633     0.613383      
0.665150     0.238656     0.663157      
0.611285     0.209873     0.339051      
0.403719     0.243617     0.387723      
0.435031     0.629757     0.499405      
0.516707     0.431918     0.636392      
0.544936     0.445150     0.363459      
0.682522     0.476592     0.515183      
0.780785     0.312724     0.701916      
0.552303     0.243960     0.583491      
0.674229     0.303945     0.418516      
0.482818     0.161854     0.299631      
0.409765     0.339708     0.485287      
