CHNCl 
1
20.000000     0.000000     0.000000
0.000000     20.000000     0.000000
0.000000     0.000000     20.000000
C H N Cl
31     14       1      8
Direct
0.377955     0.646916     0.462386      
0.338617     0.607131     0.420509      
0.282543     0.636622     0.391308      
0.265777     0.703713     0.403580      
0.304816     0.742954     0.446041      
0.361392     0.714608     0.476011      
0.410781     0.739521     0.522682      
0.421803     0.801818     0.552613      
0.476435     0.809852     0.595050      
0.520424     0.756390     0.607434      
0.510646     0.693751     0.578233      
0.455270     0.685847     0.536346      
0.466620     0.566691     0.499324      
0.479456     0.533842     0.560031      
0.510270     0.471471     0.559686      
0.530956     0.438305     0.500199      
0.516886     0.474408     0.439995      
0.485359     0.536451     0.439593      
0.563704     0.372972     0.500309      
0.617190     0.359969     0.548740      
0.670138     0.402005     0.560801      
0.721613     0.391115     0.606206      
0.718018     0.327655     0.644126      
0.668626     0.285840     0.634271      
0.617350     0.298090     0.588632      
0.543324     0.321708     0.452110      
0.591503     0.284579     0.413336      
0.572415     0.235781     0.367618      
0.506569     0.221362     0.357810      
0.455988     0.256035     0.394576      
0.476432     0.304364     0.440022      
0.350712     0.554797     0.411144      
0.250971     0.606666     0.358347      
0.221562     0.725194     0.379895      
0.291238     0.794877     0.456010      
0.388215     0.843681     0.542483      
0.485659     0.858169     0.618663      
0.563326     0.763916     0.640302      
0.545487     0.652861     0.587564      
0.463041     0.555478     0.607175      
0.478102     0.562106     0.392027      
0.762811     0.424759     0.613812      
0.664743     0.238952     0.663144      
0.611273     0.210158     0.338800      
0.403729     0.243744     0.387446      
0.435071     0.629801     0.499406      
0.516461     0.432556     0.636846      
0.544658     0.445479     0.363318      
0.680358     0.475081     0.514282      
0.781632     0.312848     0.700681      
0.551992     0.242447     0.584040      
0.675747     0.303016     0.418024      
0.482116     0.161222     0.300919      
0.412263     0.340517     0.486096      
