CHNCl 
1
20.000000     0.000000     0.000000
0.000000     20.000000     0.000000
0.000000     0.000000     20.000000
C H N Cl
31     14       1      8
Direct
0.377885     0.646647     0.463395      
0.338454     0.606545     0.421902      
0.282710     0.635998     0.392018      
0.266399     0.703436     0.403300      
0.305454     0.742937     0.445385      
0.361702     0.714663     0.476064      
0.411055     0.739776     0.522604      
0.422391     0.802422     0.551787      
0.476911     0.810592     0.594398      
0.520404     0.756975     0.607678      
0.510356     0.694048     0.579253      
0.455148     0.685979     0.537169      
0.466367     0.566655     0.500821      
0.479063     0.533259     0.560990      
0.509816     0.470935     0.560346      
0.530724     0.438268     0.500473      
0.516993     0.474825     0.440798      
0.485486     0.536738     0.440488      
0.563541     0.373057     0.500251      
0.616520     0.358415     0.548848      
0.671187     0.402441     0.560224      
0.721596     0.389351     0.606421      
0.719192     0.330295     0.643363      
0.667114     0.284843     0.634505      
0.617132     0.299222     0.588221      
0.543837     0.321672     0.451735      
0.591140     0.285176     0.413118      
0.573051     0.236063     0.367188      
0.505538     0.221509     0.357921      
0.456553     0.255459     0.394065      
0.475904     0.304228     0.439828      
0.350579     0.554568     0.411767      
0.251002     0.606414     0.358633      
0.221815     0.725078     0.379647      
0.291524     0.794940     0.455600      
0.388478     0.843882     0.542036      
0.485838     0.858465     0.618290      
0.563282     0.764121     0.640413      
0.545291     0.652893     0.588043      
0.462865     0.555222     0.607467      
0.478110     0.562420     0.392412      
0.762534     0.424628     0.613213      
0.664890     0.238876     0.663666      
0.611321     0.210158     0.338541      
0.403822     0.243783     0.387615      
0.434660     0.629594     0.500911      
0.515005     0.430165     0.637284      
0.545715     0.447398     0.364397      
0.681148     0.473608     0.511747      
0.781247     0.313492     0.700860      
0.550997     0.243350     0.585120      
0.675462     0.304391     0.416542      
0.482418     0.160641     0.300990      
0.412045     0.340113     0.485862      
