CHNCl 
1
20.000000     0.000000     0.000000
0.000000     20.000000     0.000000
0.000000     0.000000     20.000000
C H N Cl
31     14       1      8
Direct
0.377967     0.646909     0.462394      
0.338574     0.607433     0.420582      
0.282100     0.636194     0.390842      
0.265732     0.703818     0.403586      
0.305000     0.742188     0.445884      
0.361371     0.714637     0.476007      
0.410774     0.739506     0.522672      
0.421974     0.801609     0.552667      
0.476446     0.809831     0.595050      
0.520656     0.756427     0.607610      
0.510558     0.693870     0.578216      
0.455283     0.685845     0.536353      
0.466580     0.566768     0.499567      
0.479470     0.533820     0.559953      
0.510240     0.471527     0.559726      
0.530924     0.438336     0.500056      
0.516888     0.474384     0.440118      
0.485428     0.536343     0.439400      
0.563692     0.373125     0.500322      
0.616528     0.358556     0.549050      
0.670962     0.402775     0.560918      
0.721385     0.389546     0.607059      
0.719290     0.330155     0.643473      
0.667413     0.284559     0.634217      
0.617390     0.299075     0.588027      
0.543948     0.321569     0.452007      
0.591216     0.284828     0.413596      
0.573049     0.235810     0.367599      
0.505496     0.221589     0.358096      
0.456553     0.255667     0.394174      
0.475983     0.304325     0.440013      
0.350944     0.553732     0.410942      
0.252449     0.608060     0.359888      
0.221790     0.725048     0.380005      
0.290588     0.797371     0.456490      
0.387612     0.844430     0.542301      
0.485655     0.858233     0.618684      
0.562488     0.763771     0.639661      
0.545803     0.652476     0.587642      
0.463043     0.555483     0.607112      
0.478064     0.562164     0.392095      
0.762414     0.424733     0.613495      
0.665031     0.238719     0.663471      
0.611314     0.210036     0.338691      
0.403814     0.243900     0.387607      
0.435054     0.629782     0.499371      
0.516462     0.432553     0.636852      
0.544656     0.445483     0.363316      
0.680330     0.475102     0.514247      
0.781607     0.312802     0.700693      
0.552033     0.242449     0.584069      
0.675733     0.303002     0.418014      
0.482136     0.161219     0.300914      
0.412265     0.340530     0.486109      
