CHNCl 
1
20.000000     0.000000     0.000000
0.000000     20.000000     0.000000
0.000000     0.000000     20.000000
C H N Cl
31     14       1      8
Direct
0.377971     0.645746     0.461953      
0.339805     0.604902     0.420620      
0.284605     0.637564     0.393030      
0.265830     0.704806     0.404088      
0.303498     0.745366     0.445937      
0.359509     0.713929     0.474459      
0.409081     0.738410     0.521061      
0.422952     0.799334     0.552508      
0.477295     0.809203     0.595537      
0.522421     0.757465     0.609145      
0.509524     0.696032     0.578344      
0.454319     0.686536     0.535908      
0.465490     0.566230     0.499532      
0.479670     0.533688     0.559812      
0.510706     0.471500     0.559584      
0.530526     0.438131     0.499855      
0.517155     0.474776     0.439982      
0.485446     0.536569     0.439284      
0.563299     0.372928     0.500606      
0.616607     0.358603     0.549040      
0.671150     0.402790     0.560960      
0.721492     0.389595     0.607252      
0.719404     0.330023     0.643361      
0.667323     0.284617     0.634287      
0.617471     0.299054     0.587905      
0.544032     0.321605     0.451996      
0.591249     0.284903     0.413478      
0.573041     0.235708     0.367674      
0.505460     0.221765     0.357978      
0.456656     0.255718     0.394373      
0.476105     0.304470     0.440046      
0.350671     0.554126     0.410883      
0.251367     0.607225     0.358767      
0.221385     0.724612     0.379594      
0.291221     0.795610     0.456248      
0.388779     0.843219     0.542707      
0.485071     0.858359     0.618355      
0.564028     0.763902     0.640695      
0.544907     0.653217     0.587274      
0.463426     0.555570     0.607157      
0.478350     0.562452     0.392068      
0.762411     0.424771     0.613648      
0.664933     0.238789     0.663567      
0.611310     0.209916     0.338793      
0.403842     0.243871     0.387762      
0.435118     0.629821     0.498981      
0.516398     0.432501     0.636971      
0.544577     0.445462     0.363431      
0.680309     0.475098     0.514229      
0.781564     0.312843     0.700645      
0.551998     0.242411     0.584077      
0.675682     0.302997     0.418020      
0.482141     0.161157     0.300866      
0.412250     0.340515     0.486091      
