CHNCl 
1
20.000000     0.000000     0.000000
0.000000     20.000000     0.000000
0.000000     0.000000     20.000000
C H N Cl
31     14       1      8
Direct
0.378845     0.647284     0.461178      
0.339421     0.607514     0.419342      
0.282512     0.636574     0.391288      
0.265107     0.703379     0.404506      
0.304747     0.742849     0.446066      
0.362207     0.714988     0.474851      
0.411557     0.739869     0.521495      
0.421514     0.801740     0.552779      
0.475568     0.809503     0.596071      
0.520350     0.756472     0.607352      
0.511557     0.694264     0.576965      
0.456191     0.686280     0.535077      
0.465686     0.566282     0.500150      
0.478174     0.533071     0.560607      
0.509235     0.470807     0.560138      
0.530125     0.437911     0.500342      
0.515749     0.473967     0.440527      
0.484110     0.535701     0.440075      
0.563827     0.373169     0.500337      
0.616801     0.358826     0.549070      
0.671165     0.403095     0.560950      
0.721604     0.390017     0.607253      
0.719337     0.330632     0.643794      
0.667343     0.285219     0.634618      
0.617552     0.299511     0.588208      
0.544329     0.321594     0.452041      
0.591675     0.284686     0.413792      
0.573567     0.235347     0.368008      
0.505930     0.221359     0.358400      
0.457083     0.255597     0.394320      
0.476364     0.304292     0.440029      
0.351004     0.554945     0.410681      
0.250898     0.606609     0.358441      
0.221108     0.724937     0.380505      
0.291134     0.794792     0.456185      
0.387978     0.843579     0.542708      
0.485090     0.857945     0.619331      
0.563236     0.763935     0.640366      
0.545835     0.653047     0.587049      
0.462796     0.555310     0.607359      
0.477776     0.562097     0.392272      
0.762491     0.424862     0.613519      
0.664994     0.238930     0.663614      
0.611469     0.209873     0.338844      
0.403970     0.243898     0.387606      
0.435652     0.630040     0.498601      
0.518337     0.430614     0.637067      
0.544270     0.447983     0.363527      
0.679531     0.475282     0.513393      
0.781183     0.311045     0.701087      
0.552911     0.242694     0.584320      
0.676442     0.303705     0.418349      
0.480324     0.161985     0.301350      
0.411845     0.339652     0.485175      
