CHNCl 
1
20.000000     0.000000     0.000000
0.000000     20.000000     0.000000
0.000000     0.000000     20.000000
C H N Cl
31     14       1      8
Direct
0.377246     0.646937     0.462497      
0.339687     0.607715     0.419456      
0.282269     0.636585     0.392713      
0.264898     0.703508     0.404404      
0.306099     0.742893     0.444472      
0.361237     0.714400     0.476320      
0.410749     0.739625     0.522642      
0.421968     0.802613     0.551813      
0.476075     0.809507     0.595439      
0.520549     0.756334     0.608437      
0.511398     0.694043     0.577688      
0.454929     0.685283     0.536379      
0.467235     0.567104     0.499576      
0.479146     0.533534     0.560001      
0.510367     0.471431     0.559796      
0.530935     0.438362     0.500060      
0.516920     0.474545     0.440195      
0.484936     0.536171     0.439501      
0.563707     0.373179     0.500402      
0.616559     0.358537     0.549052      
0.670949     0.402765     0.560923      
0.721354     0.389515     0.607053      
0.719307     0.330153     0.643488      
0.667416     0.284594     0.634196      
0.617377     0.299071     0.588029      
0.543956     0.321608     0.452039      
0.591218     0.284818     0.413589      
0.573107     0.235774     0.367559      
0.505508     0.221619     0.358125      
0.456480     0.255658     0.394169      
0.475973     0.304319     0.440009      
0.349487     0.554169     0.413335      
0.252371     0.607239     0.356816      
0.222567     0.725724     0.378337      
0.289776     0.793807     0.458516      
0.387285     0.843497     0.543763      
0.486154     0.858421     0.617839      
0.564120     0.764429     0.639491      
0.544803     0.652497     0.588845      
0.463666     0.555704     0.607267      
0.478778     0.562636     0.392206      
0.762399     0.424733     0.613488      
0.665031     0.238729     0.663462      
0.611320     0.210018     0.338674      
0.403796     0.243887     0.387597      
0.434297     0.629427     0.498379      
0.516443     0.432577     0.636814      
0.544661     0.445451     0.363276      
0.680330     0.475107     0.514243      
0.781604     0.312803     0.700690      
0.552034     0.242450     0.584068      
0.675729     0.303001     0.418013      
0.482134     0.161211     0.300907      
0.412269     0.340526     0.486104      
