CHNCl 
1
20.000000     0.000000     0.000000
0.000000     20.000000     0.000000
0.000000     0.000000     20.000000
C H N Cl
31     14       1      8
Direct
0.377977     0.646897     0.462396      
0.338601     0.607245     0.420536      
0.282293     0.636388     0.391048      
0.266213     0.703545     0.403829      
0.304667     0.743397     0.446102      
0.361406     0.714635     0.476032      
0.410783     0.739522     0.522684      
0.422374     0.801092     0.552779      
0.476574     0.810494     0.595375      
0.520010     0.756308     0.607113      
0.510771     0.693640     0.578281      
0.455275     0.685847     0.536348      
0.466579     0.566767     0.499566      
0.479474     0.533813     0.559939      
0.510239     0.471528     0.559725      
0.530924     0.438336     0.500056      
0.516888     0.474385     0.440119      
0.485430     0.536338     0.439411      
0.563692     0.373125     0.500322      
0.616528     0.358556     0.549050      
0.670962     0.402774     0.560919      
0.721384     0.389545     0.607059      
0.719290     0.330155     0.643473      
0.667413     0.284559     0.634217      
0.617390     0.299075     0.588027      
0.543948     0.321569     0.452007      
0.591216     0.284828     0.413596      
0.573049     0.235810     0.367599      
0.505496     0.221589     0.358096      
0.456554     0.255667     0.394174      
0.475983     0.304325     0.440013      
0.350800     0.554387     0.411066      
0.251802     0.607446     0.359210      
0.220088     0.725886     0.379095      
0.291669     0.793270     0.455713      
0.386212     0.846180     0.541887      
0.485212     0.855903     0.617547      
0.564725     0.764169     0.641377      
0.545072     0.653323     0.587440      
0.463027     0.555504     0.607157      
0.478059     0.562182     0.392061      
0.762415     0.424734     0.613496      
0.665031     0.238720     0.663470      
0.611312     0.210037     0.338692      
0.403814     0.243900     0.387607      
0.435051     0.629780     0.499368      
0.516462     0.432553     0.636852      
0.544656     0.445483     0.363316      
0.680330     0.475102     0.514247      
0.781607     0.312801     0.700693      
0.552033     0.242449     0.584069      
0.675733     0.303002     0.418014      
0.482136     0.161219     0.300914      
0.412265     0.340530     0.486109      
