CHNCl 
1
20.000000     0.000000     0.000000
0.000000     20.000000     0.000000
0.000000     0.000000     20.000000
C H N Cl
31     14       1      8
Direct
0.379500     0.648357     0.464028      
0.336424     0.606592     0.418775      
0.283697     0.636544     0.392097      
0.264621     0.702430     0.402283      
0.307299     0.743404     0.447990      
0.359664     0.714824     0.474843      
0.409934     0.738090     0.521549      
0.423639     0.803501     0.554546      
0.474680     0.809721     0.593736      
0.521064     0.757288     0.608205      
0.508927     0.692368     0.576527      
0.457356     0.686161     0.537964      
0.466672     0.566827     0.500171      
0.479478     0.533799     0.559721      
0.510173     0.471636     0.559827      
0.530931     0.438337     0.499900      
0.516930     0.474278     0.440222      
0.485430     0.536334     0.439183      
0.563695     0.373126     0.500330      
0.616530     0.358549     0.549053      
0.670958     0.402776     0.560914      
0.721388     0.389540     0.607065      
0.719289     0.330159     0.643470      
0.667415     0.284557     0.634220      
0.617388     0.299079     0.588023      
0.543943     0.321575     0.452010      
0.591218     0.284823     0.413591      
0.573049     0.235813     0.367602      
0.505500     0.221585     0.358093      
0.456551     0.255674     0.394181      
0.475983     0.304320     0.440008      
0.351472     0.554755     0.411661      
0.251005     0.607077     0.358509      
0.221401     0.725773     0.379996      
0.290419     0.794831     0.455396      
0.387707     0.843055     0.541878      
0.486039     0.857696     0.618771      
0.563668     0.763718     0.640465      
0.545889     0.653485     0.588066      
0.463058     0.555498     0.607057      
0.478072     0.562211     0.391974      
0.762413     0.424736     0.613494      
0.665030     0.238719     0.663470      
0.611311     0.210036     0.338692      
0.403815     0.243898     0.387605      
0.434549     0.629527     0.498802      
0.516465     0.432544     0.636856      
0.544652     0.445491     0.363320      
0.680330     0.475102     0.514247      
0.781607     0.312801     0.700693      
0.552033     0.242449     0.584069      
0.675733     0.303002     0.418014      
0.482136     0.161219     0.300914      
0.412265     0.340530     0.486109      
