CHNCl 
1
20.000000     0.000000     0.000000
0.000000     20.000000     0.000000
0.000000     0.000000     20.000000
C H N Cl
31     14       1      8
Direct
0.378516     0.645788     0.462412      
0.337676     0.608238     0.420201      
0.283030     0.635859     0.391408      
0.265226     0.702925     0.402879      
0.305187     0.744631     0.446934      
0.362321     0.714773     0.476763      
0.411343     0.740238     0.523366      
0.423425     0.801067     0.553517      
0.475440     0.809940     0.594337      
0.520113     0.757237     0.607550      
0.511028     0.692240     0.577931      
0.454671     0.686972     0.536346      
0.466662     0.566749     0.499496      
0.479436     0.533815     0.559951      
0.510244     0.471519     0.559696      
0.530932     0.438346     0.500098      
0.516859     0.474426     0.440156      
0.485407     0.536309     0.439448      
0.563693     0.373123     0.500317      
0.616524     0.358554     0.549051      
0.670962     0.402771     0.560921      
0.721382     0.389539     0.607061      
0.719277     0.330158     0.643461      
0.667416     0.284566     0.634215      
0.617396     0.299078     0.588028      
0.543944     0.321565     0.452006      
0.591241     0.284834     0.413598      
0.573065     0.235808     0.367596      
0.505483     0.221556     0.358066      
0.456539     0.255672     0.394179      
0.475968     0.304335     0.440024      
0.348504     0.554928     0.409757      
0.252541     0.604624     0.358671      
0.220974     0.723053     0.378713      
0.292455     0.795534     0.457106      
0.389465     0.844243     0.543601      
0.483477     0.859031     0.617429      
0.562624     0.766418     0.640624      
0.544278     0.650969     0.586150      
0.463167     0.555467     0.607196      
0.478094     0.562345     0.392139      
0.762420     0.424722     0.613507      
0.665044     0.238725     0.663476      
0.611336     0.210049     0.338703      
0.403803     0.243922     0.387629      
0.434376     0.629405     0.498637      
0.516461     0.432551     0.636854      
0.544659     0.445478     0.363305      
0.680329     0.475103     0.514246      
0.781610     0.312801     0.700695      
0.552033     0.242449     0.584069      
0.675729     0.303001     0.418013      
0.482139     0.161225     0.300920      
0.412267     0.340528     0.486106      
