CHNCl 
1
20.000000     0.000000     0.000000
0.000000     20.000000     0.000000
0.000000     0.000000     20.000000
C H N Cl
31     14       1      8
Direct
0.377938     0.646995     0.462579      
0.338577     0.607160     0.420765      
0.282559     0.636629     0.391410      
0.265887     0.703824     0.403514      
0.304894     0.743070     0.445873      
0.361420     0.714781     0.476008      
0.410790     0.739714     0.522620      
0.421854     0.802126     0.552389      
0.476504     0.810209     0.594850      
0.520393     0.756744     0.607382      
0.510595     0.694048     0.578386      
0.455239     0.686045     0.536480      
0.466541     0.566902     0.499798      
0.479456     0.533860     0.560125      
0.510243     0.471573     0.559800      
0.530961     0.438484     0.500079      
0.516883     0.474623     0.440205      
0.485391     0.536555     0.439603      
0.563779     0.373290     0.500196      
0.616547     0.358523     0.548912      
0.670701     0.402943     0.561430      
0.720898     0.389688     0.607809      
0.718934     0.330024     0.643782      
0.667441     0.284148     0.633778      
0.617616     0.298688     0.587384      
0.543980     0.321824     0.451765      
0.591194     0.285443     0.412971      
0.573007     0.236232     0.367185      
0.505475     0.221480     0.358314      
0.456577     0.255335     0.394664      
0.476041     0.304205     0.440265      
0.350680     0.554793     0.411258      
0.250976     0.606650     0.358391      
0.221603     0.725192     0.379829      
0.291291     0.794924     0.455928      
0.388236     0.843765     0.542371      
0.485662     0.858301     0.618552      
0.563312     0.764037     0.640288      
0.545447     0.652932     0.587633      
0.463032     0.555482     0.607196      
0.478036     0.562271     0.392111      
0.762195     0.424839     0.613866      
0.665071     0.238528     0.663231      
0.611284     0.210219     0.338496      
0.403830     0.243696     0.387874      
0.434963     0.629913     0.499665      
0.516512     0.432411     0.636869      
0.544671     0.446183     0.363365      
0.679760     0.476089     0.516172      
0.780407     0.312555     0.701843      
0.553314     0.240849     0.581569      
0.675513     0.305177     0.415876      
0.482025     0.160250     0.302139      
0.412633     0.339730     0.487378      
