CHNCl 
1
20.000000     0.000000     0.000000
0.000000     20.000000     0.000000
0.000000     0.000000     20.000000
C H N Cl
31     14       1      8
Direct
0.376165     0.645990     0.464809      
0.339376     0.607371     0.419354      
0.282384     0.636535     0.391486      
0.266783     0.704278     0.402176      
0.304615     0.743001     0.446156      
0.362102     0.715101     0.474990      
0.411587     0.739858     0.521666      
0.421694     0.801839     0.552787      
0.477502     0.810406     0.593637      
0.520235     0.756297     0.607518      
0.511457     0.694133     0.577096      
0.453496     0.684864     0.538850      
0.466628     0.566729     0.499613      
0.479357     0.533814     0.560060      
0.510371     0.471594     0.559587      
0.530817     0.438322     0.499862      
0.517030     0.474456     0.439933      
0.485364     0.536226     0.439471      
0.563578     0.373098     0.500286      
0.616547     0.358549     0.548966      
0.670963     0.402789     0.560971      
0.721425     0.389521     0.607089      
0.719328     0.330146     0.643523      
0.667470     0.284539     0.634255      
0.617428     0.299106     0.588070      
0.543940     0.321563     0.451982      
0.591238     0.284840     0.413610      
0.573061     0.235838     0.367617      
0.505504     0.221611     0.358128      
0.456574     0.255714     0.394208      
0.475994     0.304341     0.440049      
0.350576     0.554699     0.411279      
0.249796     0.606099     0.359972      
0.220473     0.724597     0.381371      
0.290104     0.794325     0.457532      
0.387040     0.843133     0.544025      
0.484560     0.857634     0.620225      
0.562074     0.763296     0.642021      
0.545337     0.652771     0.587786      
0.463087     0.555483     0.607201      
0.478080     0.562255     0.392109      
0.762436     0.424717     0.613494      
0.665051     0.238709     0.663474      
0.611315     0.210040     0.338700      
0.403819     0.243918     0.387619      
0.436126     0.630268     0.498189      
0.516453     0.432528     0.636934      
0.544618     0.445506     0.363422      
0.680326     0.475108     0.514235      
0.781570     0.312811     0.700659      
0.552004     0.242431     0.584061      
0.675719     0.302996     0.418011      
0.482128     0.161194     0.300890      
0.412273     0.340521     0.486098      
