CHNCl 
1
20.000000     0.000000     0.000000
0.000000     20.000000     0.000000
0.000000     0.000000     20.000000
C H N Cl
31     14       1      8
Direct
0.377978     0.646903     0.462399      
0.338639     0.607052     0.420498      
0.282523     0.636601     0.391287      
0.265787     0.703754     0.403602      
0.304799     0.742935     0.446022      
0.361392     0.714636     0.476022      
0.410770     0.739500     0.522666      
0.421795     0.801834     0.552613      
0.476462     0.809843     0.595066      
0.520410     0.756383     0.607422      
0.510652     0.693772     0.578246      
0.455283     0.685840     0.536350      
0.466569     0.566788     0.499595      
0.479491     0.533789     0.559900      
0.510239     0.471529     0.559726      
0.530925     0.438334     0.500061      
0.516905     0.474354     0.440109      
0.485312     0.536743     0.438666      
0.563692     0.373126     0.500322      
0.616528     0.358556     0.549050      
0.670962     0.402775     0.560918      
0.721394     0.389553     0.607060      
0.719290     0.330154     0.643473      
0.667413     0.284558     0.634217      
0.617390     0.299075     0.588027      
0.543948     0.321568     0.452007      
0.591216     0.284829     0.413596      
0.573058     0.235804     0.367592      
0.505496     0.221589     0.358096      
0.456551     0.255667     0.394174      
0.475983     0.304325     0.440013      
0.350648     0.555062     0.411191      
0.251005     0.606691     0.358381      
0.221571     0.725167     0.379893      
0.291248     0.794866     0.456015      
0.388207     0.843679     0.542478      
0.485639     0.858175     0.618652      
0.563322     0.763918     0.640300      
0.545489     0.652839     0.587555      
0.462977     0.555571     0.607300      
0.478446     0.560835     0.394546      
0.762384     0.424707     0.613491      
0.665031     0.238721     0.663469      
0.611282     0.210057     0.338715      
0.403821     0.243902     0.387607      
0.435054     0.629780     0.499369      
0.516462     0.432553     0.636852      
0.544656     0.445484     0.363318      
0.680330     0.475102     0.514247      
0.781607     0.312802     0.700693      
0.552033     0.242449     0.584069      
0.675733     0.303002     0.418014      
0.482136     0.161219     0.300914      
0.412265     0.340530     0.486109      
