CHNCl 
1
20.000000     0.000000     0.000000
0.000000     20.000000     0.000000
0.000000     0.000000     20.000000
C H N Cl
31     14       1      8
Direct
0.376654     0.645318     0.462900      
0.337104     0.607187     0.418258      
0.280092     0.636364     0.389751      
0.263952     0.703398     0.402993      
0.305148     0.741669     0.444540      
0.361005     0.713202     0.476443      
0.412289     0.739007     0.522025      
0.422452     0.800692     0.554292      
0.477896     0.811125     0.595590      
0.522194     0.758271     0.608856      
0.511342     0.694938     0.580747      
0.457395     0.685985     0.535764      
0.466671     0.566642     0.499525      
0.479293     0.534275     0.560218      
0.509920     0.472008     0.560073      
0.530433     0.439327     0.499999      
0.516655     0.475035     0.439728      
0.485149     0.536862     0.439012      
0.563285     0.374004     0.500216      
0.616581     0.358862     0.548198      
0.671293     0.402501     0.560541      
0.721146     0.389111     0.607305      
0.718784     0.329893     0.644060      
0.666788     0.284616     0.633943      
0.617396     0.299265     0.586999      
0.543653     0.321606     0.452824      
0.591067     0.284818     0.414624      
0.573535     0.236280     0.367767      
0.506168     0.221883     0.357412      
0.457155     0.255572     0.393879      
0.475963     0.303827     0.440442      
0.350466     0.554988     0.409708      
0.250392     0.606661     0.357702      
0.221162     0.725512     0.379854      
0.291899     0.794766     0.455026      
0.387784     0.843028     0.543628      
0.485611     0.858708     0.618654      
0.563718     0.764411     0.640883      
0.545335     0.653091     0.589165      
0.462892     0.555754     0.607120      
0.477904     0.562481     0.392018      
0.762353     0.424588     0.613636      
0.664600     0.238707     0.663324      
0.611635     0.210365     0.338811      
0.404011     0.243824     0.387423      
0.435251     0.629359     0.499387      
0.516515     0.432303     0.637239      
0.544777     0.445336     0.363112      
0.680042     0.474922     0.514273      
0.782318     0.312858     0.700992      
0.552335     0.242452     0.584374      
0.675432     0.302730     0.417680      
0.481666     0.160755     0.300707      
0.412457     0.340767     0.486199      
