CHNCl 
1
20.000000     0.000000     0.000000
0.000000     20.000000     0.000000
0.000000     0.000000     20.000000
C H N Cl
31     14       1      8
Direct
0.377266     0.646380     0.462948      
0.337995     0.605977     0.421587      
0.281200     0.634642     0.392905      
0.263693     0.701582     0.405211      
0.302681     0.741417     0.447036      
0.359967     0.713944     0.476511      
0.409475     0.739567     0.522608      
0.419958     0.802146     0.552246      
0.474866     0.810987     0.594231      
0.519570     0.758111     0.606398      
0.510358     0.695254     0.577531      
0.454762     0.686489     0.536086      
0.466857     0.567239     0.499699      
0.479908     0.534315     0.560059      
0.510643     0.471996     0.559790      
0.531261     0.438788     0.500090      
0.517255     0.474925     0.440187      
0.485724     0.536839     0.439533      
0.563910     0.373525     0.500270      
0.616527     0.358610     0.549141      
0.671141     0.402532     0.561253      
0.721469     0.388855     0.607366      
0.719072     0.329303     0.643501      
0.666968     0.284013     0.634041      
0.617044     0.298977     0.587890      
0.544376     0.322130     0.451680      
0.591819     0.285487     0.413387      
0.573865     0.236605     0.367157      
0.506358     0.222414     0.357302      
0.457252     0.256390     0.393264      
0.476469     0.304922     0.439324      
0.350697     0.554502     0.411457      
0.250599     0.605942     0.358930      
0.220790     0.724354     0.380481      
0.290475     0.794394     0.456309      
0.387499     0.843636     0.542406      
0.485064     0.858564     0.618341      
0.563127     0.764600     0.639897      
0.545554     0.653412     0.587315      
0.463177     0.555632     0.607174      
0.478109     0.562332     0.392083      
0.762488     0.424468     0.613635      
0.664834     0.238530     0.663363      
0.611586     0.210286     0.338596      
0.404024     0.244113     0.387267      
0.434892     0.630091     0.499452      
0.517083     0.433292     0.636939      
0.545355     0.446628     0.363374      
0.681242     0.474965     0.515382      
0.781084     0.310302     0.700574      
0.550929     0.242891     0.583415      
0.676747     0.304057     0.418373      
0.484074     0.162926     0.299057      
0.412746     0.341413     0.484553      
