CHNCl 
1
20.000000     0.000000     0.000000
0.000000     20.000000     0.000000
0.000000     0.000000     20.000000
C H N Cl
31     14       1      8
Direct
0.377926     0.646945     0.462290      
0.338136     0.606975     0.421234      
0.283076     0.636901     0.390853      
0.266218     0.703937     0.403045      
0.304102     0.742430     0.447000      
0.361805     0.714849     0.475495      
0.410270     0.739338     0.523275      
0.422838     0.802591     0.551013      
0.475783     0.809394     0.595916      
0.519829     0.756027     0.608594      
0.511605     0.694287     0.577025      
0.455059     0.685596     0.536494      
0.466791     0.566806     0.499569      
0.479133     0.533719     0.560084      
0.510315     0.471566     0.559776      
0.530975     0.438256     0.500059      
0.516823     0.474433     0.440110      
0.485453     0.536467     0.439312      
0.563795     0.372933     0.500340      
0.616550     0.358559     0.549136      
0.670967     0.402792     0.560894      
0.721322     0.389479     0.607054      
0.719325     0.330138     0.643510      
0.667414     0.284651     0.634156      
0.617402     0.299104     0.588003      
0.543934     0.321566     0.451927      
0.591184     0.284833     0.413619      
0.572993     0.235854     0.367647      
0.505493     0.221560     0.358068      
0.456621     0.255675     0.394178      
0.475962     0.304329     0.440037      
0.351501     0.555224     0.409956      
0.250334     0.606298     0.359388      
0.220934     0.724824     0.380765      
0.292319     0.795404     0.454488      
0.386406     0.842930     0.544977      
0.486668     0.858650     0.617196      
0.564635     0.764578     0.638527      
0.544063     0.652154     0.589773      
0.463591     0.555796     0.607250      
0.477859     0.562170     0.392015      
0.762391     0.424720     0.613495      
0.665005     0.238743     0.663443      
0.611313     0.210067     0.338713      
0.403834     0.243908     0.387602      
0.434895     0.629599     0.499101      
0.516446     0.432558     0.636831      
0.544664     0.445483     0.363316      
0.680329     0.475102     0.514247      
0.781600     0.312805     0.700685      
0.552023     0.242441     0.584069      
0.675746     0.303005     0.418013      
0.482137     0.161224     0.300920      
0.412267     0.340529     0.486107      
