CHNCl 
1
20.000000     0.000000     0.000000
0.000000     20.000000     0.000000
0.000000     0.000000     20.000000
C H N Cl
31     14       1      8
Direct
0.377948     0.646888     0.462373      
0.338441     0.607889     0.420645      
0.282821     0.636860     0.391589      
0.266044     0.703614     0.403734      
0.304828     0.742787     0.445987      
0.361388     0.714632     0.476018      
0.410771     0.739502     0.522668      
0.421847     0.801776     0.552632      
0.476438     0.809688     0.594994      
0.520242     0.756351     0.607292      
0.510481     0.693978     0.578201      
0.455293     0.685845     0.536360      
0.466578     0.566770     0.499568      
0.479465     0.533827     0.559971      
0.510240     0.471527     0.559726      
0.530924     0.438336     0.500056      
0.516889     0.474382     0.440117      
0.485418     0.536376     0.439339      
0.563692     0.373126     0.500322      
0.616527     0.358556     0.549050      
0.670962     0.402775     0.560919      
0.721384     0.389545     0.607059      
0.719290     0.330155     0.643473      
0.667413     0.284559     0.634217      
0.617390     0.299075     0.588027      
0.543948     0.321569     0.452007      
0.591216     0.284828     0.413596      
0.573049     0.235810     0.367599      
0.505496     0.221589     0.358096      
0.456553     0.255667     0.394174      
0.475983     0.304325     0.440013      
0.351283     0.552296     0.410687      
0.250090     0.605829     0.357428      
0.220748     0.725573     0.379454      
0.291130     0.795334     0.456107      
0.388051     0.843872     0.542430      
0.485730     0.858665     0.618891      
0.563863     0.764014     0.640713      
0.546056     0.652172     0.587709      
0.463064     0.555457     0.607054      
0.478095     0.562053     0.392299      
0.762417     0.424736     0.613496      
0.665031     0.238720     0.663470      
0.611313     0.210036     0.338691      
0.403815     0.243900     0.387607      
0.435053     0.629786     0.499372      
0.516462     0.432553     0.636852      
0.544656     0.445483     0.363316      
0.680330     0.475102     0.514247      
0.781607     0.312801     0.700693      
0.552033     0.242449     0.584069      
0.675733     0.303002     0.418014      
0.482136     0.161219     0.300914      
0.412265     0.340530     0.486109      
