CHNCl 
1
20.000000     0.000000     0.000000
0.000000     20.000000     0.000000
0.000000     0.000000     20.000000
C H N Cl
31     14       1      8
Direct
0.377796     0.647010     0.462297      
0.338667     0.606937     0.420537      
0.282711     0.636781     0.391400      
0.265621     0.703879     0.403501      
0.304882     0.742584     0.446050      
0.361441     0.714491     0.475948      
0.410861     0.739355     0.522742      
0.422106     0.801494     0.552564      
0.476458     0.810074     0.595198      
0.520065     0.756309     0.607283      
0.510773     0.693628     0.578167      
0.455316     0.686111     0.536493      
0.466200     0.567407     0.499586      
0.480199     0.532952     0.558475      
0.510415     0.471067     0.559570      
0.530131     0.439633     0.500042      
0.517224     0.473974     0.440082      
0.485730     0.535301     0.440876      
0.562762     0.375625     0.500642      
0.616565     0.358309     0.548169      
0.670803     0.402538     0.561234      
0.721834     0.390047     0.607059      
0.719036     0.330331     0.643170      
0.667410     0.283848     0.634703      
0.617083     0.298625     0.588338      
0.544218     0.321782     0.453063      
0.591751     0.284701     0.413259      
0.574061     0.235115     0.366839      
0.505613     0.222126     0.358608      
0.455284     0.255486     0.394097      
0.476069     0.304269     0.439711      
0.350751     0.554762     0.411081      
0.250963     0.606656     0.358477      
0.221494     0.725221     0.379903      
0.291458     0.794824     0.455993      
0.388082     0.843428     0.542547      
0.485667     0.858274     0.618613      
0.563344     0.763911     0.640093      
0.545432     0.652775     0.587640      
0.463079     0.554793     0.606843      
0.478440     0.561722     0.392341      
0.762573     0.424861     0.613426      
0.665346     0.238533     0.663685      
0.611340     0.209562     0.338340      
0.403474     0.243722     0.387548      
0.434775     0.630516     0.499425      
0.516465     0.432538     0.636931      
0.544646     0.445487     0.363290      
0.680359     0.475152     0.514207      
0.781669     0.312774     0.700764      
0.552187     0.242578     0.584061      
0.675511     0.302952     0.418014      
0.482099     0.161099     0.300795      
0.412265     0.340506     0.486107      
