CHNCl 
1
20.000000     0.000000     0.000000
0.000000     20.000000     0.000000
0.000000     0.000000     20.000000
C H N Cl
31     14       1      8
Direct
0.377585     0.646695     0.461850      
0.337858     0.607353     0.419810      
0.281613     0.637125     0.391021      
0.265020     0.704261     0.403564      
0.304559     0.743192     0.445704      
0.361193     0.714598     0.475387      
0.410565     0.739487     0.522039      
0.421828     0.801548     0.552467      
0.476439     0.808899     0.595146      
0.520340     0.755302     0.607111      
0.510383     0.693045     0.577448      
0.454849     0.685763     0.535753      
0.467978     0.567511     0.500210      
0.481235     0.534705     0.560752      
0.511720     0.472189     0.560490      
0.532005     0.438922     0.500653      
0.518631     0.475404     0.440911      
0.487931     0.537671     0.440269      
0.563882     0.373236     0.500573      
0.616725     0.358465     0.549143      
0.671024     0.402800     0.560952      
0.721490     0.389678     0.607091      
0.719322     0.330278     0.643571      
0.667411     0.284667     0.634426      
0.617476     0.299062     0.588127      
0.544005     0.321787     0.452108      
0.591286     0.284929     0.413693      
0.573163     0.235800     0.367769      
0.505646     0.221562     0.358181      
0.456756     0.255651     0.394225      
0.476058     0.304340     0.440053      
0.350424     0.554863     0.410820      
0.250643     0.606850     0.358284      
0.221303     0.725368     0.379981      
0.291289     0.794965     0.455976      
0.388292     0.843682     0.542534      
0.485653     0.857836     0.618810      
0.563309     0.763520     0.640216      
0.545352     0.652576     0.587176      
0.463395     0.555657     0.607356      
0.478759     0.562580     0.392297      
0.762446     0.424772     0.613498      
0.665035     0.238770     0.663562      
0.611364     0.210033     0.338767      
0.403875     0.243888     0.387619      
0.434580     0.629619     0.499250      
0.516297     0.431327     0.637444      
0.543396     0.445773     0.363974      
0.678973     0.474974     0.513782      
0.781619     0.312490     0.700809      
0.551891     0.242921     0.583566      
0.676114     0.302553     0.417510      
0.481827     0.161448     0.301084      
0.411294     0.339435     0.485566      
