CHNCl 
1
20.000000     0.000000     0.000000
0.000000     20.000000     0.000000
0.000000     0.000000     20.000000
C H N Cl
31     14       1      8
Direct
0.376861     0.646424     0.463941      
0.338686     0.607288     0.420396      
0.281609     0.636104     0.392477      
0.266334     0.703873     0.403081      
0.304506     0.742743     0.446551      
0.363267     0.715721     0.473522      
0.408787     0.738652     0.525137      
0.422118     0.801943     0.552089      
0.476030     0.809473     0.595604      
0.521373     0.756829     0.606266      
0.510476     0.693809     0.578386      
0.456323     0.686447     0.534806      
0.466678     0.566562     0.499568      
0.479609     0.533794     0.560033      
0.510202     0.471464     0.559832      
0.530847     0.438489     0.500050      
0.516964     0.474372     0.440003      
0.485374     0.536208     0.439333      
0.563622     0.373264     0.500318      
0.616575     0.358609     0.548945      
0.670941     0.402840     0.560897      
0.721331     0.389502     0.607045      
0.719344     0.330145     0.643520      
0.667502     0.284516     0.634307      
0.617497     0.299150     0.588082      
0.543870     0.321561     0.452112      
0.591088     0.284788     0.413541      
0.573034     0.235713     0.367508      
0.505475     0.221543     0.358052      
0.456623     0.255689     0.394193      
0.475937     0.304387     0.440039      
0.351843     0.555383     0.409547      
0.251625     0.606989     0.357368      
0.222045     0.725398     0.379295      
0.290611     0.794538     0.456864      
0.388867     0.843997     0.541622      
0.485190     0.857938     0.619207      
0.562685     0.763602     0.641261      
0.544356     0.652301     0.589096      
0.462897     0.555436     0.607120      
0.478179     0.562263     0.392061      
0.762405     0.424716     0.613480      
0.665057     0.238700     0.663485      
0.611315     0.210002     0.338680      
0.403835     0.243898     0.387623      
0.435084     0.629713     0.499366      
0.516457     0.432597     0.636801      
0.544622     0.445516     0.363371      
0.680322     0.475068     0.514261      
0.781569     0.312801     0.700666      
0.551972     0.242400     0.584060      
0.675812     0.303021     0.418023      
0.482159     0.161247     0.300938      
0.412300     0.340514     0.486092      
