CHNCl 
1
20.000000     0.000000     0.000000
0.000000     20.000000     0.000000
0.000000     0.000000     20.000000
C H N Cl
31     14       1      8
Direct
0.377680     0.646100     0.463959      
0.338204     0.607211     0.421311      
0.283160     0.637462     0.390452      
0.264276     0.703771     0.404273      
0.304920     0.742973     0.445088      
0.361353     0.714263     0.475375      
0.410477     0.739675     0.521996      
0.421906     0.801889     0.551657      
0.475539     0.808592     0.595765      
0.521481     0.756381     0.606586      
0.510488     0.693377     0.579075      
0.454472     0.686082     0.537932      
0.468701     0.567866     0.499523      
0.478618     0.533964     0.560024      
0.509273     0.471619     0.559988      
0.531918     0.438855     0.500569      
0.516203     0.473554     0.440348      
0.485024     0.535666     0.439478      
0.564470     0.373492     0.499615      
0.617067     0.357296     0.548259      
0.669759     0.403034     0.561397      
0.720343     0.389970     0.607364      
0.721203     0.328791     0.641030      
0.667376     0.284635     0.635628      
0.617338     0.298829     0.589287      
0.543344     0.322715     0.451114      
0.591031     0.284758     0.414817      
0.573083     0.235651     0.368887      
0.505529     0.223975     0.355596      
0.456281     0.254559     0.394563      
0.475514     0.303283     0.440460      
0.350621     0.554914     0.410883      
0.251669     0.606979     0.357532      
0.220979     0.725083     0.380261      
0.291656     0.795011     0.455596      
0.388560     0.843917     0.542057      
0.485195     0.857756     0.619049      
0.564000     0.764296     0.639481      
0.545523     0.652711     0.587308      
0.462332     0.555440     0.607044      
0.477622     0.561714     0.391961      
0.761627     0.425335     0.614064      
0.664732     0.239214     0.664597      
0.611501     0.209462     0.339772      
0.403824     0.242896     0.388232      
0.436711     0.630635     0.499149      
0.516620     0.432628     0.636613      
0.544850     0.445538     0.363044      
0.680615     0.475336     0.513984      
0.781234     0.312795     0.700884      
0.552224     0.242646     0.583813      
0.675983     0.303068     0.417775      
0.481949     0.160957     0.301142      
0.412562     0.340625     0.485876      
