CHNCl 
1
20.000000     0.000000     0.000000
0.000000     20.000000     0.000000
0.000000     0.000000     20.000000
C H N Cl
31     14       1      8
Direct
0.379159     0.646889     0.462393      
0.338818     0.607952     0.420599      
0.282134     0.637140     0.391750      
0.264855     0.704380     0.402562      
0.304006     0.742630     0.445673      
0.360912     0.714164     0.475700      
0.410067     0.739416     0.522369      
0.421053     0.801412     0.552301      
0.476432     0.808747     0.594006      
0.520551     0.755731     0.607873      
0.511392     0.693440     0.578299      
0.455952     0.686795     0.536316      
0.468073     0.567461     0.500600      
0.480112     0.531767     0.559704      
0.509894     0.469257     0.558383      
0.531738     0.438690     0.498280      
0.515899     0.475843     0.438935      
0.483956     0.537793     0.439192      
0.563850     0.373158     0.500735      
0.616500     0.357927     0.549854      
0.670595     0.402885     0.561281      
0.721678     0.389548     0.606574      
0.719010     0.330915     0.644246      
0.668248     0.283987     0.635259      
0.618786     0.297405     0.588023      
0.543100     0.321877     0.452876      
0.590599     0.287328     0.413589      
0.573162     0.237029     0.368792      
0.506091     0.220706     0.358997      
0.456549     0.255669     0.393374      
0.475505     0.303780     0.440119      
0.350459     0.554971     0.411105      
0.250899     0.606494     0.358718      
0.221333     0.725337     0.379490      
0.291127     0.794772     0.456147      
0.388049     0.843655     0.542615      
0.485660     0.857908     0.618242      
0.563130     0.763943     0.640677      
0.545468     0.652556     0.587497      
0.463334     0.554512     0.607280      
0.477094     0.562788     0.392157      
0.762743     0.424522     0.612964      
0.665493     0.238688     0.664003      
0.611631     0.210521     0.339303      
0.403811     0.244182     0.386884      
0.436167     0.630316     0.500626      
0.516357     0.433023     0.637524      
0.544806     0.445122     0.364051      
0.680523     0.475510     0.514024      
0.781013     0.312679     0.700165      
0.551724     0.242728     0.583944      
0.675911     0.302515     0.417851      
0.481592     0.160916     0.300441      
0.412837     0.340476     0.485929      
