CHNCl 
1
20.000000     0.000000     0.000000
0.000000     20.000000     0.000000
0.000000     0.000000     20.000000
C H N Cl
31     14       1      8
Direct
0.380085     0.646448     0.463774      
0.339546     0.606452     0.420904      
0.281692     0.636526     0.390668      
0.265361     0.703118     0.403067      
0.305470     0.742802     0.446457      
0.361466     0.717136     0.477057      
0.408724     0.740973     0.521647      
0.421551     0.801182     0.552208      
0.477203     0.809802     0.595585      
0.520958     0.756958     0.608012      
0.510724     0.692654     0.577915      
0.454326     0.684073     0.535013      
0.465869     0.568200     0.499549      
0.479401     0.534074     0.559750      
0.510232     0.471320     0.560705      
0.530986     0.438215     0.500069      
0.517062     0.474258     0.439140      
0.485261     0.536553     0.439612      
0.563807     0.372888     0.500318      
0.616390     0.358597     0.548960      
0.670975     0.402794     0.560904      
0.721432     0.389565     0.607079      
0.719288     0.330094     0.643512      
0.667425     0.284505     0.634258      
0.617321     0.299146     0.587930      
0.544004     0.321705     0.452098      
0.591195     0.284931     0.413695      
0.573086     0.235767     0.367557      
0.505549     0.221552     0.358056      
0.456507     0.255643     0.394156      
0.475961     0.304326     0.440027      
0.349004     0.554362     0.409852      
0.249920     0.607646     0.357966      
0.221366     0.724724     0.379588      
0.292473     0.794975     0.456900      
0.387339     0.842661     0.541498      
0.486107     0.858064     0.618947      
0.563164     0.765271     0.640655      
0.546910     0.654023     0.588913      
0.463412     0.554442     0.607753      
0.478651     0.561299     0.391464      
0.762406     0.424774     0.613469      
0.665218     0.238758     0.663587      
0.611168     0.209906     0.338574      
0.403787     0.243930     0.387632      
0.435143     0.629412     0.499296      
0.516462     0.432594     0.636737      
0.544623     0.445509     0.363431      
0.680327     0.475098     0.514249      
0.781602     0.312805     0.700687      
0.552038     0.242451     0.584071      
0.675729     0.302999     0.418011      
0.482137     0.161225     0.300920      
0.412269     0.340529     0.486107      
