CHNCl 
1
20.000000     0.000000     0.000000
0.000000     20.000000     0.000000
0.000000     0.000000     20.000000
C H N Cl
31     14       1      8
Direct
0.378090     0.645784     0.461670      
0.338760     0.604632     0.419879      
0.283194     0.636919     0.391955      
0.264929     0.704343     0.403388      
0.303125     0.744892     0.445637      
0.360580     0.714883     0.475498      
0.411030     0.740290     0.523208      
0.421212     0.804313     0.553030      
0.476453     0.810868     0.595378      
0.519768     0.756042     0.606796      
0.512529     0.692166     0.578947      
0.456193     0.685133     0.536949      
0.467182     0.565570     0.499571      
0.479552     0.533636     0.560647      
0.510170     0.471529     0.560323      
0.530537     0.439049     0.500059      
0.516952     0.474447     0.439539      
0.485524     0.536156     0.438713      
0.563481     0.373608     0.500303      
0.616951     0.358402     0.548342      
0.670701     0.403027     0.561106      
0.721294     0.389388     0.606930      
0.719382     0.330194     0.643671      
0.667759     0.284343     0.634438      
0.617529     0.299352     0.588463      
0.543816     0.321105     0.452762      
0.590910     0.284904     0.413143      
0.573013     0.235402     0.367393      
0.505411     0.221545     0.357883      
0.456724     0.255621     0.394307      
0.475929     0.304701     0.439787      
0.350388     0.554063     0.410521      
0.251083     0.607133     0.358240      
0.221333     0.724708     0.379184      
0.290862     0.795513     0.455727      
0.388014     0.844414     0.542644      
0.486253     0.858143     0.619211      
0.562970     0.764154     0.640276      
0.546275     0.652682     0.588129      
0.462892     0.555638     0.607185      
0.478010     0.562380     0.391989      
0.762457     0.424631     0.613335      
0.665214     0.238594     0.663444      
0.611307     0.209804     0.338738      
0.403869     0.243792     0.387771      
0.435474     0.628878     0.499402      
0.516404     0.432764     0.636573      
0.544522     0.445655     0.363583      
0.680319     0.475020     0.514265      
0.781476     0.312800     0.700609      
0.551874     0.242317     0.584020      
0.675935     0.303050     0.418064      
0.482215     0.161326     0.301001      
0.412335     0.340490     0.486095      
