NoName  0.000000                        
   1.00000000000000     
    20.0000000000000000    0.0000000000000000    0.0000000000000000
     0.0000000000000000   20.0000000000000000    0.0000000000000000
     0.0000000000000000    0.0000000000000000   20.0000000000000000
   C    H    N    Cl
    31    14     1     8
Direct
  0.3779747841260627  0.6469026111278671  0.4623966552719059
  0.3386223951880677  0.6071317735428930  0.4205127059869529
  0.2825354671103488  0.6366100405474964  0.3912985960119765
  0.2657912088112857  0.7037505843153903  0.4036042046711306
  0.3047991440532226  0.7429333806391090  0.4460215268717553
  0.3613924242205941  0.7146357669299688  0.4760217636372751
  0.4107696916447733  0.7394998892882826  0.5226662124172682
  0.4217950250727882  0.8018339415293191  0.5526132065340481
  0.4764621888677483  0.8098420541096908  0.5950659575765556
  0.5204106700758440  0.7563837568170952  0.6074224344804672
  0.5106554149804645  0.6937682928464216  0.5782466857818193
  0.4552815709144663  0.6858405667528285  0.5363503437317774
  0.4665800255119629  0.5667670598237331  0.4995667573595460
  0.4794717966461415  0.5338165731031800  0.5599460747204367
  0.5102393578209159  0.4715273664513513  0.5597253905536689
  0.5309240544042942  0.4383363137101518  0.5000560713532157
  0.5168881626442715  0.4743851491696001  0.4401188955095405
  0.4854311333624522  0.5363353326587846  0.4394148965733910
  0.5636921979671966  0.3731253708409503  0.5003221117348073
  0.6165275822395103  0.3585555670839332  0.5490497652923754
  0.6709620773013296  0.4027744968480558  0.5609184854407793
  0.7213846807578569  0.3895454271405069  0.6070587015492215
  0.7192898781780028  0.3301548162942563  0.6434730148540393
  0.6674127951544895  0.2845587303899417  0.6342167717396681
  0.6173902923332156  0.2990746121970607  0.5880273953518643
  0.5439478089666248  0.3215687309283831  0.4520067432634431
  0.5912157114531035  0.2848281438639664  0.4135957793760042
  0.5730489198586762  0.2358098735284528  0.3675989572575336
  0.5054963915794064  0.2215889024655249  0.3580961005201121
  0.4565533716764455  0.2556672476477604  0.3941742270290031
  0.4759832537072676  0.3043246604602387  0.4400125451637884
  0.3507082034882538  0.5547962722474151  0.4111419248001971
  0.2509705002502283  0.6066590134424755  0.3583450531332420
  0.2215598027421850  0.7251725851162739  0.3798868130299166
  0.2912473074937325  0.7948714635871844  0.4560160730289422
  0.3882063986287472  0.8436804315981575  0.5424773081505080
  0.4856394009603210  0.8581777873073512  0.6186535512405039
  0.5633203491587224  0.7639179841796283  0.6402985257726411
  0.5454770955256967  0.6528523418794364  0.5875516661797215
  0.4630356616383978  0.5554928337530960  0.6071339029569836
  0.4780565335703272  0.5621906840661919  0.3920463957258510
  0.7624144042192708  0.4247336433572119  0.6134955180642599
  0.6650312722129894  0.2387196159403502  0.6634704146899358
  0.6113127589158502  0.2100363018991979  0.3386920456305512
  0.4038145558535262  0.2439002720201066  0.3876066558926751
  0.4350540996634720  0.6297825294336907  0.4993716394009148
  0.5164616867199378  0.4325526160381369  0.6368519493092250
  0.5446561824375071  0.4454833428578418  0.3633156537217099
  0.6803296341522725  0.4751016168203521  0.5142471722160855
  0.7816074523702548  0.3128015077127539  0.7006928063680190
  0.5520332245709197  0.2424492303395435  0.5840690456240291
  0.6757334205700362  0.3030023256904298  0.4180136103292436
  0.4821361928871729  0.1612187239358576  0.3009139991544842
  0.4122646743414055  0.3405298217251342  0.4861089169650035
 
  0.00000000E+00  0.00000000E+00  0.00000000E+00
  0.00000000E+00  0.00000000E+00  0.00000000E+00
  0.00000000E+00  0.00000000E+00  0.00000000E+00
  0.00000000E+00  0.00000000E+00  0.00000000E+00
  0.00000000E+00  0.00000000E+00  0.00000000E+00
  0.00000000E+00  0.00000000E+00  0.00000000E+00
  0.00000000E+00  0.00000000E+00  0.00000000E+00
  0.00000000E+00  0.00000000E+00  0.00000000E+00
  0.00000000E+00  0.00000000E+00  0.00000000E+00
  0.00000000E+00  0.00000000E+00  0.00000000E+00
  0.00000000E+00  0.00000000E+00  0.00000000E+00
  0.00000000E+00  0.00000000E+00  0.00000000E+00
  0.00000000E+00  0.00000000E+00  0.00000000E+00
  0.00000000E+00  0.00000000E+00  0.00000000E+00
  0.00000000E+00  0.00000000E+00  0.00000000E+00
  0.00000000E+00  0.00000000E+00  0.00000000E+00
  0.00000000E+00  0.00000000E+00  0.00000000E+00
  0.00000000E+00  0.00000000E+00  0.00000000E+00
  0.00000000E+00  0.00000000E+00  0.00000000E+00
  0.00000000E+00  0.00000000E+00  0.00000000E+00
  0.00000000E+00  0.00000000E+00  0.00000000E+00
  0.00000000E+00  0.00000000E+00  0.00000000E+00
  0.00000000E+00  0.00000000E+00  0.00000000E+00
  0.00000000E+00  0.00000000E+00  0.00000000E+00
  0.00000000E+00  0.00000000E+00  0.00000000E+00
  0.00000000E+00  0.00000000E+00  0.00000000E+00
  0.00000000E+00  0.00000000E+00  0.00000000E+00
  0.00000000E+00  0.00000000E+00  0.00000000E+00
  0.00000000E+00  0.00000000E+00  0.00000000E+00
  0.00000000E+00  0.00000000E+00  0.00000000E+00
  0.00000000E+00  0.00000000E+00  0.00000000E+00
  0.00000000E+00  0.00000000E+00  0.00000000E+00
  0.00000000E+00  0.00000000E+00  0.00000000E+00
  0.00000000E+00  0.00000000E+00  0.00000000E+00
  0.00000000E+00  0.00000000E+00  0.00000000E+00
  0.00000000E+00  0.00000000E+00  0.00000000E+00
  0.00000000E+00  0.00000000E+00  0.00000000E+00
  0.00000000E+00  0.00000000E+00  0.00000000E+00
  0.00000000E+00  0.00000000E+00  0.00000000E+00
  0.00000000E+00  0.00000000E+00  0.00000000E+00
  0.00000000E+00  0.00000000E+00  0.00000000E+00
  0.00000000E+00  0.00000000E+00  0.00000000E+00
  0.00000000E+00  0.00000000E+00  0.00000000E+00
  0.00000000E+00  0.00000000E+00  0.00000000E+00
  0.00000000E+00  0.00000000E+00  0.00000000E+00
  0.00000000E+00  0.00000000E+00  0.00000000E+00
  0.00000000E+00  0.00000000E+00  0.00000000E+00
  0.00000000E+00  0.00000000E+00  0.00000000E+00
  0.00000000E+00  0.00000000E+00  0.00000000E+00
  0.00000000E+00  0.00000000E+00  0.00000000E+00
  0.00000000E+00  0.00000000E+00  0.00000000E+00
  0.00000000E+00  0.00000000E+00  0.00000000E+00
  0.00000000E+00  0.00000000E+00  0.00000000E+00
  0.00000000E+00  0.00000000E+00  0.00000000E+00
